[TITLE]
;;Cedar Glen to FRS -- synthetic conveyance demonstration
;;Generated by generate_model.py (seed 20260816); all data invented.

[OPTIONS]
;;Option               Value
FLOW_UNITS           MGD
INFILTRATION         HORTON
FLOW_ROUTING         DYNWAVE
LINK_OFFSETS         DEPTH
MIN_SLOPE            0
ALLOW_PONDING        YES
SKIP_STEADY_STATE    NO

START_DATE           01/01/2026
START_TIME           00:00:00
REPORT_START_DATE    01/01/2026
REPORT_START_TIME    00:00:00
END_DATE             01/02/2026
END_TIME             00:00:00
REPORT_STEP          0:01:00
WET_STEP             0:05:00
DRY_STEP             1:00:00
ROUTING_STEP         0:00:30

INERTIAL_DAMPING     PARTIAL
NORMAL_FLOW_LIMITED  BOTH
FORCE_MAIN_EQUATION  H-W
SURCHARGE_METHOD     EXTRAN
VARIABLE_STEP        0.75
LENGTHENING_STEP     0
MIN_SURFAREA         0
MAX_TRIALS           8
HEAD_TOLERANCE       0.005
SYS_FLOW_TOL         5
LAT_FLOW_TOL         5
MINIMUM_STEP         0.5

FV_LTS               YES
FV_LTS_MAX_TIERS     4


[JUNCTIONS]
;;Name             Elev       MaxDepth   InitDepth  SurDepth   Aponded
TU0000000            468.0000     0.0000     0.0000    40.0000     0.0000
TU0002672            459.9837     0.0000     0.0000    40.0000     0.0000
TU0005213            452.3601     0.0000     0.0000    40.0000     0.0000
TU0007917            447.0146     0.0000     0.0000    40.0000     0.0000
TU0009817            443.5949     0.0000     0.0000    40.0000     0.0000
TM0002713            452.3498     0.0000     0.0000    40.0000     0.0000
TM0005252            442.7143     0.0000     0.0000    40.0000     0.0000
TM0007238            442.6854     0.0000     0.0000    40.0000     0.0000
TL0002658            436.8368     0.0000     0.0000    40.0000     0.0000
TL0005207            430.5798     0.0000     0.0000    40.0000     0.0000
TL0007853            423.1725     0.0000     0.0000    40.0000     0.0000
BA0000000            479.1635     0.0000     0.0000    40.0000     0.0000
BA0002678            463.0955     0.0000     0.0000    40.0000     0.0000
BA0005279            451.0498     0.0000     0.0000    40.0000     0.0000
BB0000000            469.8142     0.0000     0.0000    40.0000     0.0000
BB0002622            455.3955     0.0000     0.0000    40.0000     0.0000
BB0005220            444.0169     0.0000     0.0000    40.0000     0.0000

[VIRTUAL_JUNCTIONS]
;;Name             Elev       Rim
TU0000124            467.6278    11.0000
TU0000243            467.2712    11.0000
TU0000340            466.9790    11.0000
TU0000435            466.6961    11.0000
TU0000560            466.3192    11.0000
TU0000624            466.1265    11.0000
TU0000722            465.8332    11.0000
TU0000835            465.4957    11.0000
TU0000940            465.1792    11.0000
TU0001043            464.8695    11.0000
TU0001128            464.6167    11.0000
TU0001211            464.3666    11.0000
TU0001310            464.0714    11.0000
TU0001388            463.8351    11.0000
TU0001514            463.4592    11.0000
TU0001586            463.2412    11.0000
TU0001670            462.9900    11.0000
TU0001788            462.6370    11.0000
TU0001904            462.2882    11.0000
TU0001982            462.0545    11.0000
TU0002056            461.8319    11.0000
TU0002136            461.5911    11.0000
TU0002196            461.4109    11.0000
TU0002329            461.0126    11.0000
TU0002403            460.7906    11.0000
TU0002542            460.3733    11.0000
TU0002811            459.5681    11.0000
TU0002907            459.2792    11.0000
TU0003035            458.8960    11.0000
TU0003158            458.5271    11.0000
TU0003232            458.3033    11.0000
TU0003306            458.0835    11.0000
TU0003428            457.7166    11.0000
TU0003502            457.4948    11.0000
TU0003572            457.2839    11.0000
TU0003633            457.1010    11.0000
TU0003725            456.8251    11.0000
TU0003860            456.4194    11.0000
TU0003925            456.2246    11.0000
TU0004028            455.9175    11.0000
TU0004125            455.6251    11.0000
TU0004230            455.3086    11.0000
TU0004296            455.1128    11.0000
TU0004396            454.8127    11.0000
TU0004532            454.4055    11.0000
TU0004635            454.0938    11.0000
TU0004699            453.9045    11.0000
TU0004824            453.5286    11.0000
TU0004892            453.3232    11.0000
TU0004960            453.1190    11.0000
TU0005034            452.8970    11.0000
TU0005118            452.6474    11.0000
TU0005350            451.9509    11.0000
TU0005415            451.7559    11.0000
TU0005538            451.3853    11.0000
TU0005612            451.1634    11.0000
TU0005720            450.9701    11.0000
TU0005803            450.8193    11.0000
TU0005888            450.6667    11.0000
TU0005996            450.4717    11.0000
TU0006069            450.3419    11.0000
TU0006204            450.0976    11.0000
TU0006329            449.8732    11.0000
TU0006445            449.6652    11.0000
TU0006547            449.4800    11.0000
TU0006649            449.2963    11.0000
TU0006784            449.0547    11.0000
TU0006922            448.8052    11.0000
TU0007041            448.5917    11.0000
TU0007110            448.4672    11.0000
TU0007249            448.2172    11.0000
TU0007340            448.0528    11.0000
TU0007462            447.8340    11.0000
TU0007577            447.6268    11.0000
TU0007686            447.4310    11.0000
TU0007798            447.2290    11.0000
TU0008033            446.8067    11.0000
TU0008128            446.6346    11.0000
TU0008196            446.5129    11.0000
TU0008327            446.2772    11.0000
TU0008434            446.0837    11.0000
TU0008546            445.8831    11.0000
TU0008608            445.7701    11.0000
TU0008742            445.5298    11.0000
TU0008847            445.3415    11.0000
TU0008976            445.1079    11.0000
TU0009092            444.9001    11.0000
TU0009193            444.7172    11.0000
TU0009260            444.5967    11.0000
TU0009338            444.4564    11.0000
TU0009406            444.3347    11.0000
TU0009470            444.2187    11.0000
TU0009608            443.9717    11.0000
TU0009718            443.7729    11.0000
TM0000096            443.4218    11.5000
TM0000199            443.2371    11.5000
TM0000310            443.0369    11.5000
TM0000381            442.9088    11.5000
TM0000450            442.7842    11.5000
TM0000516            442.6667    11.5000
TM0000580            442.6153    11.5000
TM0000672            442.5417    11.5000
TM0000767            442.4660    11.5000
TM0000872            442.3815    11.5000
TM0000987            442.2898    11.5000
TM0001060            442.2316    11.5000
TM0001158            442.1532    11.5000
TM0001259            442.0721    11.5000
TM0001339            442.0077    11.5000
TM0001460            441.9109    11.5000
TM0001579            443.7457    11.5000
TM0001675            445.2339    11.5000
TM0001742            446.2792    11.5000
TM0001838            447.7644    11.5000
TM0001947            449.4592    11.5000
TM0002081            451.5303    11.5000
TM0002189            453.2071    11.5000
TM0002305            455.0013    11.5000
TM0002412            454.3052    11.5000
TM0002474            453.9026    11.5000
TM0002582            453.1989    11.5000
TM0002773            451.9566    11.5000
TM0002894            451.1712    11.5000
TM0003030            450.2895    11.5000
TM0003126            449.6640    11.5000
TM0003262            448.7792    11.5000
TM0003352            448.1980    11.5000
TM0003416            447.7769    11.5000
TM0003519            447.1112    11.5000
TM0003585            446.6787    11.5000
TM0003683            446.0447    11.5000
TM0003808            445.2290    11.5000
TM0003923            444.4868    11.5000
TM0004047            443.6783    11.5000
TM0004167            443.5821    11.5000
TM0004263            443.5053    11.5000
TM0004352            443.4346    11.5000
TM0004432            443.3702    11.5000
TM0004544            443.2807    11.5000
TM0004675            443.1757    11.5000
TM0004789            443.0845    11.5000
TM0004865            443.0240    11.5000
TM0004992            442.9227    11.5000
TM0005127            442.8144    11.5000
TM0005377            442.6143    11.5000
TM0005490            443.1788    11.5000
TM0005578            443.6185    11.5000
TM0005684            444.1481    11.5000
TM0005760            444.5283    11.5000
TM0005872            445.0880    11.5000
TM0005955            445.5065    11.5000
TM0006059            445.2794    11.5000
TM0006123            445.1373    11.5000
TM0006205            444.9581    11.5000
TM0006319            444.7076    11.5000
TM0006413            444.5003    11.5000
TM0006552            444.1947    11.5000
TM0006652            443.9730    11.5000
TM0006717            443.8300    11.5000
TM0006792            443.6664    11.5000
TM0006897            443.4357    11.5000
TM0006959            443.2981    11.5000
TM0007031            443.1411    11.5000
TM0007142            442.8959    11.5000
TL0000111            442.4420    12.5000
TL0000172            442.3071    12.5000
TL0000258            442.1188    12.5000
TL0000356            441.9019    12.5000
TL0000488            441.6116    12.5000
TL0000569            441.4325    12.5000
TL0000647            441.2628    12.5000
TL0000749            441.0369    12.5000
TL0000830            440.8583    12.5000
TL0000936            440.6265    12.5000
TL0001055            440.3643    12.5000
TL0001128            440.2028    12.5000
TL0001230            439.9800    12.5000
TL0001347            439.7221    12.5000
TL0001419            439.5627    12.5000
TL0001507            439.3701    12.5000
TL0001571            439.2291    12.5000
TL0001682            438.9855    12.5000
TL0001776            438.7782    12.5000
TL0001874            438.5634    12.5000
TL0001991            438.3060    12.5000
TL0002075            438.1206    12.5000
TL0002155            437.9448    12.5000
TL0002282            437.6654    12.5000
TL0002374            437.4618    12.5000
TL0002444            437.3083    12.5000
TL0002551            437.0738    12.5000
TL0002767            436.5972    12.5000
TL0002880            436.3491    12.5000
TL0002962            436.1699    12.5000
TL0003039            435.9998    12.5000
TL0003126            435.8078    12.5000
TL0003263            435.5059    12.5000
TL0003397            435.2114    12.5000
TL0003471            435.0493    12.5000
TL0003550            434.8762    12.5000
TL0003627            434.7054    12.5000
TL0003696            434.5552    12.5000
TL0003812            434.2980    12.5000
TL0003912            434.0792    12.5000
TL0004035            433.8086    12.5000
TL0004124            433.6125    12.5000
TL0004231            433.3127    12.5000
TL0004323            433.0559    12.5000
TL0004460            432.6710    12.5000
TL0004588            432.3137    12.5000
TL0004707            431.9815    12.5000
TL0004797            431.7294    12.5000
TL0004894            431.4573    12.5000
TL0005003            431.1503    12.5000
TL0005119            430.8273    12.5000
TL0005323            430.2545    12.5000
TL0005447            429.9075    12.5000
TL0005564            429.5814    12.5000
TL0005637            429.3760    12.5000
TL0005767            429.0117    12.5000
TL0005840            428.8075    12.5000
TL0005912            428.6070    12.5000
TL0006049            428.2227    12.5000
TL0006125            428.0101    12.5000
TL0006238            427.6925    12.5000
TL0006375            427.3104    12.5000
TL0006486            426.9995    12.5000
TL0006608            426.6581    12.5000
TL0006736            426.2996    12.5000
TL0006842            426.0009    12.5000
TL0006906            425.8223    12.5000
TL0006972            425.6378    12.5000
TL0007106            425.2620    12.5000
TL0007246            424.8703    12.5000
TL0007331            424.6338    12.5000
TL0007391            424.4655    12.5000
TL0007482            424.2114    12.5000
TL0007592            423.9021    12.5000
TL0007711            423.5703    12.5000
TL0007780            423.3753    12.5000
TL0007940            422.9291    12.5000
TL0008058            422.5963    12.5000
TL0008156            422.3231    12.5000
TL0008291            421.9439    12.5000
TL0008415            421.5970    12.5000
TL0008539            421.2498    12.5000
TL0008657            420.9194    12.5000
TL0008764            420.6194    12.5000
BA0000066            478.7702     9.0000
BA0000147            478.2787     9.0000
BA0000248            477.6760     9.0000
BA0000357            477.0241     9.0000
BA0000491            476.2179     9.0000
BA0000615            475.4735     9.0000
BA0000735            474.7552     9.0000
BA0000822            474.2333     9.0000
BA0000926            473.6095     9.0000
BA0000993            473.2036     9.0000
BA0001132            472.3740     9.0000
BA0001208            471.9136     9.0000
BA0001310            471.3054     9.0000
BA0001448            470.4780     9.0000
BA0001560            469.8036     9.0000
BA0001622            469.4311     9.0000
BA0001740            468.7255     9.0000
BA0001867            467.9623     9.0000
BA0001947            467.4830     9.0000
BA0002065            466.7742     9.0000
BA0002151            466.2595     9.0000
BA0002213            465.8852     9.0000
BA0002283            465.4644     9.0000
BA0002376            464.9051     9.0000
BA0002479            464.2884     9.0000
BA0002576            463.7048     9.0000
BA0002746            462.6897     9.0000
BA0002849            462.0696     9.0000
BA0002945            461.4910     9.0000
BA0003033            460.9636     9.0000
BA0003095            460.5956     9.0000
BA0003235            459.7564     9.0000
BA0003311            459.2952     9.0000
BA0003404            458.7402     9.0000
BA0003499            458.1668     9.0000
BA0003631            457.6424     9.0000
BA0003743            457.1937     9.0000
BA0003851            456.7589     9.0000
BA0003922            456.4756     9.0000
BA0004020            456.0862     9.0000
BA0004157            455.5382     9.0000
BA0004271            455.0791     9.0000
BA0004410            454.5235     9.0000
BA0004543            453.9913     9.0000
BA0004613            453.7114     9.0000
BA0004710            453.3242     9.0000
BA0004823            452.8718     9.0000
BA0004893            452.5910     9.0000
BA0004985            452.2234     9.0000
BA0005061            451.9206     9.0000
BA0005180            451.4428     9.0000
BA0005359            450.7276     9.0000
BA0005423            450.4724     9.0000
BA0005511            450.1187     9.0000
BA0005580            449.8436     9.0000
BA0005650            449.5635     9.0000
BA0005767            449.0960     9.0000
BA0005860            448.7251     9.0000
BA0005945            448.3835     9.0000
BA0006053            447.9525     9.0000
BA0006170            447.4843     9.0000
BA0006275            447.0632     9.0000
BA0006413            446.5138     9.0000
BA0006510            446.1238     9.0000
BA0006572            445.8766     9.0000
BA0006702            445.3569     9.0000
BA0006807            444.9371     9.0000
BA0006902            444.5564     9.0000
BA0006971            444.2818     9.0000
BA0007053            443.9515     9.0000
BB0000130            469.0989     8.5000
BB0000201            468.7073     8.5000
BB0000273            468.3122     8.5000
BB0000335            467.9700     8.5000
BB0000469            467.2365     8.5000
BB0000568            466.6900     8.5000
BB0000668            466.1395     8.5000
BB0000778            465.5333     8.5000
BB0000915            464.7805     8.5000
BB0000981            464.4178     8.5000
BB0001065            463.9552     8.5000
BB0001168            463.3875     8.5000
BB0001229            463.0555     8.5000
BB0001359            462.3374     8.5000
BB0001422            461.9906     8.5000
BB0001540            461.3445     8.5000
BB0001605            460.9877     8.5000
BB0001679            460.5789     8.5000
BB0001817            459.8179     8.5000
BB0001934            459.1769     8.5000
BB0002032            458.6402     8.5000
BB0002116            458.1760     8.5000
BB0002243            457.4800     8.5000
BB0002336            456.9665     8.5000
BB0002415            456.5316     8.5000
BB0002507            456.0251     8.5000
BB0002721            454.8495     8.5000
BB0002839            454.2022     8.5000
BB0002977            453.4420     8.5000
BB0003079            452.8804     8.5000
BB0003149            452.4933     8.5000
BB0003278            451.7855     8.5000
BB0003350            451.4992     8.5000
BB0003489            450.9414     8.5000
BB0003628            450.3835     8.5000
BB0003736            449.9541     8.5000
BB0003841            449.5330     8.5000
BB0003920            449.2185     8.5000
BB0004045            448.7177     8.5000
BB0004134            448.3604     8.5000
BB0004265            447.8384     8.5000
BB0004326            447.5950     8.5000
BB0004414            447.2422     8.5000
BB0004499            446.9018     8.5000
BB0004614            446.4410     8.5000
BB0004734            445.9621     8.5000
BB0004858            445.4644     8.5000
BB0004953            445.0850     8.5000
BB0005056            444.6714     8.5000
BB0005158            444.2642     8.5000
BB0005347            443.5087     8.5000
BB0005425            443.1955     8.5000

[OUTFALLS]
;;Name             Elev       Type       Gated
OUT_RIVER            415.4379 FREE       NO
OUT_OVERFLOW         424.4379 FREE       NO

[STORAGE]
;;Name             Elev       MaxDepth   InitDepth  Shape      Coeff    Expon    Const    SurDepth Fevap
FRS_Basin            418.4379    22.0000     2.0000 FUNCTIONAL 0        0        120000   0        0

[CONDUITS]
;;Name             FromNode           ToNode             Length     Roughness  InOffset   OutOffset  InitFlow   MaxFlow
TUC000             TU0000000          TU0000124              124.07     0.0130     0.0000     0.0000     0.0000     0.0000
TUC001             TU0000124          TU0000243              118.87     0.0130     0.0000     0.0000     0.0000     0.0000
TUC002             TU0000243          TU0000340               97.41     0.0130     0.0000     0.0000     0.0000     0.0000
TUC003             TU0000340          TU0000435               94.30     0.0130     0.0000     0.0000     0.0000     0.0000
TUC004             TU0000435          TU0000560              125.63     0.0130     0.0000     0.0000     0.0000     0.0000
TUC005             TU0000560          TU0000624               64.22     0.0130     0.0000     0.0000     0.0000     0.0000
TUC006             TU0000624          TU0000722               97.76     0.0130     0.0000     0.0000     0.0000     0.0000
TUC007             TU0000722          TU0000835              112.50     0.0130     0.0000     0.0000     0.0000     0.0000
TUC008             TU0000835          TU0000940              105.49     0.0130     0.0000     0.0000     0.0000     0.0000
TUC009             TU0000940          TU0001043              103.25     0.0130     0.0000     0.0000     0.0000     0.0000
TUC010             TU0001043          TU0001128               84.28     0.0130     0.0000     0.0000     0.0000     0.0000
TUC011             TU0001128          TU0001211               83.37     0.0130     0.0000     0.0000     0.0000     0.0000
TUC012             TU0001211          TU0001310               98.39     0.0130     0.0000     0.0000     0.0000     0.0000
TUC013             TU0001310          TU0001388               78.78     0.0130     0.0000     0.0000     0.0000     0.0000
TUC014             TU0001388          TU0001514              125.29     0.0130     0.0000     0.0000     0.0000     0.0000
TUC015             TU0001514          TU0001586               72.65     0.0130     0.0000     0.0000     0.0000     0.0000
TUC016             TU0001586          TU0001670               83.76     0.0130     0.0000     0.0000     0.0000     0.0000
TUC017             TU0001670          TU0001788              117.65     0.0130     0.0000     0.0000     0.0000     0.0000
TUC018             TU0001788          TU0001904              116.26     0.0130     0.0000     0.0000     0.0000     0.0000
TUC019             TU0001904          TU0001982               77.91     0.0130     0.0000     0.0000     0.0000     0.0000
TUC020             TU0001982          TU0002056               74.20     0.0130     0.0000     0.0000     0.0000     0.0000
TUC021             TU0002056          TU0002136               80.27     0.0130     0.0000     0.0000     0.0000     0.0000
TUC022             TU0002136          TU0002196               60.08     0.0130     0.0000     0.0000     0.0000     0.0000
TUC023             TU0002196          TU0002329              132.75     0.0130     0.0000     0.0000     0.0000     0.0000
TUC024             TU0002329          TU0002403               74.00     0.0130     0.0000     0.0000     0.0000     0.0000
TUC025             TU0002403          TU0002542              139.13     0.0130     0.0000     0.0000     0.0000     0.0000
TUC026             TU0002542          TU0002672              129.85     0.0130     0.0000     0.0000     0.0000     0.0000
TUC027             TU0002672          TU0002811              138.55     0.0130     0.0000     0.0000     0.0000     0.0000
TUC028             TU0002811          TU0002907               96.28     0.0130     0.0000     0.0000     0.0000     0.0000
TUC029             TU0002907          TU0003035              127.74     0.0130     0.0000     0.0000     0.0000     0.0000
TUC030             TU0003035          TU0003158              122.95     0.0130     0.0000     0.0000     0.0000     0.0000
TUC031             TU0003158          TU0003232               74.62     0.0130     0.0000     0.0000     0.0000     0.0000
TUC032             TU0003232          TU0003306               73.27     0.0130     0.0000     0.0000     0.0000     0.0000
TUC033             TU0003306          TU0003428              122.29     0.0130     0.0000     0.0000     0.0000     0.0000
TUC034             TU0003428          TU0003502               73.95     0.0130     0.0000     0.0000     0.0000     0.0000
TUC035             TU0003502          TU0003572               70.29     0.0130     0.0000     0.0000     0.0000     0.0000
TUC036             TU0003572          TU0003633               60.98     0.0130     0.0000     0.0000     0.0000     0.0000
TUC037             TU0003633          TU0003725               91.94     0.0130     0.0000     0.0000     0.0000     0.0000
TUC038             TU0003725          TU0003860              135.24     0.0130     0.0000     0.0000     0.0000     0.0000
TUC039             TU0003860          TU0003925               64.93     0.0130     0.0000     0.0000     0.0000     0.0000
TUC040             TU0003925          TU0004028              102.38     0.0130     0.0000     0.0000     0.0000     0.0000
TUC041             TU0004028          TU0004125               97.47     0.0130     0.0000     0.0000     0.0000     0.0000
TUC042             TU0004125          TU0004230              105.49     0.0130     0.0000     0.0000     0.0000     0.0000
TUC043             TU0004230          TU0004296               65.26     0.0130     0.0000     0.0000     0.0000     0.0000
TUC044             TU0004296          TU0004396              100.04     0.0130     0.0000     0.0000     0.0000     0.0000
TUC045             TU0004396          TU0004532              135.75     0.0130     0.0000     0.0000     0.0000     0.0000
TUC046             TU0004532          TU0004635              103.91     0.0130     0.0000     0.0000     0.0000     0.0000
TUC047             TU0004635          TU0004699               63.09     0.0130     0.0000     0.0000     0.0000     0.0000
TUC048             TU0004699          TU0004824              125.29     0.0130     0.0000     0.0000     0.0000     0.0000
TUC049             TU0004824          TU0004892               68.47     0.0130     0.0000     0.0000     0.0000     0.0000
TUC050             TU0004892          TU0004960               68.07     0.0130     0.0000     0.0000     0.0000     0.0000
TUC051             TU0004960          TU0005034               74.02     0.0130     0.0000     0.0000     0.0000     0.0000
TUC052             TU0005034          TU0005118               83.19     0.0130     0.0000     0.0000     0.0000     0.0000
TUC053             TU0005118          TU0005213               95.76     0.0130     0.0000     0.0000     0.0000     0.0000
TUC054             TU0005213          TU0005350              136.41     0.0130     0.0000     0.0000     0.0000     0.0000
TUC055             TU0005350          TU0005415               65.00     0.0130     0.0000     0.0000     0.0000     0.0000
TUC056             TU0005415          TU0005538              123.52     0.0130     0.0000     0.0000     0.0000     0.0000
TUC057             TU0005538          TU0005612               73.98     0.0130     0.0000     0.0000     0.0000     0.0000
TUC058             TU0005612          TU0005720              107.38     0.0130     0.0000     0.0000     0.0000     0.0000
TUC059             TU0005720          TU0005803               83.81     0.0130     0.0000     0.0000     0.0000     0.0000
TUC060             TU0005803          TU0005888               84.76     0.0130     0.0000     0.0000     0.0000     0.0000
TUC061             TU0005888          TU0005996              108.33     0.0130     0.0000     0.0000     0.0000     0.0000
TUC062             TU0005996          TU0006069               72.09     0.0130     0.0000     0.0000     0.0000     0.0000
TUC063             TU0006069          TU0006204              135.73     0.0130     0.0000     0.0000     0.0000     0.0000
TUC064             TU0006204          TU0006329              124.70     0.0130     0.0000     0.0000     0.0000     0.0000
TUC065             TU0006329          TU0006445              115.52     0.0130     0.0000     0.0000     0.0000     0.0000
TUC066             TU0006445          TU0006547              102.89     0.0130     0.0000     0.0000     0.0000     0.0000
TUC067             TU0006547          TU0006649              102.06     0.0130     0.0000     0.0000     0.0000     0.0000
TUC068             TU0006649          TU0006784              134.25     0.0130     0.0000     0.0000     0.0000     0.0000
TUC069             TU0006784          TU0006922              138.60     0.0130     0.0000     0.0000     0.0000     0.0000
TUC070             TU0006922          TU0007041              118.61     0.0130     0.0000     0.0000     0.0000     0.0000
TUC071             TU0007041          TU0007110               69.17     0.0130     0.0000     0.0000     0.0000     0.0000
TUC072             TU0007110          TU0007249              138.88     0.0130     0.0000     0.0000     0.0000     0.0000
TUC073             TU0007249          TU0007340               91.33     0.0130     0.0000     0.0000     0.0000     0.0000
TUC074             TU0007340          TU0007462              121.57     0.0130     0.0000     0.0000     0.0000     0.0000
TUC075             TU0007462          TU0007577              115.11     0.0130     0.0000     0.0000     0.0000     0.0000
TUC076             TU0007577          TU0007686              108.78     0.0130     0.0000     0.0000     0.0000     0.0000
TUC077             TU0007686          TU0007798              112.23     0.0130     0.0000     0.0000     0.0000     0.0000
TUC078             TU0007798          TU0007917              119.12     0.0130     0.0000     0.0000     0.0000     0.0000
TUC079             TU0007917          TU0008033              115.50     0.0130     0.0000     0.0000     0.0000     0.0000
TUC080             TU0008033          TU0008128               95.60     0.0130     0.0000     0.0000     0.0000     0.0000
TUC081             TU0008128          TU0008196               67.61     0.0130     0.0000     0.0000     0.0000     0.0000
TUC082             TU0008196          TU0008327              130.95     0.0130     0.0000     0.0000     0.0000     0.0000
TUC083             TU0008327          TU0008434              107.50     0.0130     0.0000     0.0000     0.0000     0.0000
TUC084             TU0008434          TU0008546              111.40     0.0130     0.0000     0.0000     0.0000     0.0000
TUC085             TU0008546          TU0008608               62.80     0.0130     0.0000     0.0000     0.0000     0.0000
TUC086             TU0008608          TU0008742              133.52     0.0130     0.0000     0.0000     0.0000     0.0000
TUC087             TU0008742          TU0008847              104.58     0.0130     0.0000     0.0000     0.0000     0.0000
TUC088             TU0008847          TU0008976              129.79     0.0130     0.0000     0.0000     0.0000     0.0000
TUC089             TU0008976          TU0009092              115.43     0.0130     0.0000     0.0000     0.0000     0.0000
TUC090             TU0009092          TU0009193              101.64     0.0130     0.0000     0.0000     0.0000     0.0000
TUC091             TU0009193          TU0009260               66.92     0.0130     0.0000     0.0000     0.0000     0.0000
TUC092             TU0009260          TU0009338               77.94     0.0130     0.0000     0.0000     0.0000     0.0000
TUC093             TU0009338          TU0009406               67.64     0.0130     0.0000     0.0000     0.0000     0.0000
TUC094             TU0009406          TU0009470               64.43     0.0130     0.0000     0.0000     0.0000     0.0000
TUC095             TU0009470          TU0009608              137.22     0.0130     0.0000     0.0000     0.0000     0.0000
TUC096             TU0009608          TU0009718              110.42     0.0130     0.0000     0.0000     0.0000     0.0000
TUC097             TU0009718          TU0009817               98.93     0.0130     0.0000     0.0000     0.0000     0.0000
TMC000             TU0009817          TM0000096               96.16     0.0130     0.0000     0.0000     0.0000     0.0000
TMC001             TM0000096          TM0000199              102.59     0.0130     0.0000     0.0000     0.0000     0.0000
TMC002             TM0000199          TM0000310              111.27     0.0130     0.0000     0.0000     0.0000     0.0000
TMC003             TM0000310          TM0000381               71.17     0.0130     0.0000     0.0000     0.0000     0.0000
TMC004             TM0000381          TM0000450               69.22     0.0130     0.0000     0.0000     0.0000     0.0000
TMC005             TM0000450          TM0000516               65.25     0.0130     0.0000     0.0000     0.0000     0.0000
TMC006             TM0000516          TM0000580               64.28     0.0130     0.0000     0.0000     0.0000     0.0000
TMC007             TM0000580          TM0000672               92.02     0.0130     0.0000     0.0000     0.0000     0.0000
TMC008             TM0000672          TM0000767               94.63     0.0130     0.0000     0.0000     0.0000     0.0000
TMC009             TM0000767          TM0000872              105.64     0.0130     0.0000     0.0000     0.0000     0.0000
TMC010             TM0000872          TM0000987              114.56     0.0130     0.0000     0.0000     0.0000     0.0000
TMC011             TM0000987          TM0001060               72.75     0.0130     0.0000     0.0000     0.0000     0.0000
TMC012             TM0001060          TM0001158               98.04     0.0130     0.0000     0.0000     0.0000     0.0000
TMC013             TM0001158          TM0001259              101.39     0.0130     0.0000     0.0000     0.0000     0.0000
TMC014             TM0001259          TM0001339               80.40     0.0130     0.0000     0.0000     0.0000     0.0000
TMC015             TM0001339          TM0001460              121.11     0.0130     0.0000     0.0000     0.0000     0.0000
TMC016             TM0001460          TM0001579              118.38     0.0130     0.0000     0.0000     0.0000     0.0000
TMC017             TM0001579          TM0001675               96.01     0.0130     0.0000     0.0000     0.0000     0.0000
TMC018             TM0001675          TM0001742               67.44     0.0130     0.0000     0.0000     0.0000     0.0000
TMC019             TM0001742          TM0001838               95.82     0.0130     0.0000     0.0000     0.0000     0.0000
TMC020             TM0001838          TM0001947              109.34     0.0130     0.0000     0.0000     0.0000     0.0000
TMC021             TM0001947          TM0002081              133.62     0.0130     0.0000     0.0000     0.0000     0.0000
TMC022             TM0002081          TM0002189              108.18     0.0130     0.0000     0.0000     0.0000     0.0000
TMC023             TM0002189          TM0002305              115.76     0.0130     0.0000     0.0000     0.0000     0.0000
TMC024             TM0002305          TM0002412              107.09     0.0130     0.0000     0.0000     0.0000     0.0000
TMC025             TM0002412          TM0002474               61.94     0.0130     0.0000     0.0000     0.0000     0.0000
TMC026             TM0002474          TM0002582              108.26     0.0130     0.0000     0.0000     0.0000     0.0000
TMC027             TM0002582          TM0002713              130.63     0.0130     0.0000     0.0000     0.0000     0.0000
TMC028             TM0002713          TM0002773               60.50     0.0130     0.0000     0.0000     0.0000     0.0000
TMC029             TM0002773          TM0002894              120.83     0.0130     0.0000     0.0000     0.0000     0.0000
TMC030             TM0002894          TM0003030              135.63     0.0130     0.0000     0.0000     0.0000     0.0000
TMC031             TM0003030          TM0003126               96.24     0.0130     0.0000     0.0000     0.0000     0.0000
TMC032             TM0003126          TM0003262              136.12     0.0130     0.0000     0.0000     0.0000     0.0000
TMC033             TM0003262          TM0003352               89.43     0.0130     0.0000     0.0000     0.0000     0.0000
TMC034             TM0003352          TM0003416               64.77     0.0130     0.0000     0.0000     0.0000     0.0000
TMC035             TM0003416          TM0003519              102.43     0.0130     0.0000     0.0000     0.0000     0.0000
TMC036             TM0003519          TM0003585               66.54     0.0130     0.0000     0.0000     0.0000     0.0000
TMC037             TM0003585          TM0003683               97.54     0.0130     0.0000     0.0000     0.0000     0.0000
TMC038             TM0003683          TM0003808              125.49     0.0130     0.0000     0.0000     0.0000     0.0000
TMC039             TM0003808          TM0003923              114.19     0.0130     0.0000     0.0000     0.0000     0.0000
TMC040             TM0003923          TM0004047              124.38     0.0130     0.0000     0.0000     0.0000     0.0000
TMC041             TM0004047          TM0004167              120.25     0.0130     0.0000     0.0000     0.0000     0.0000
TMC042             TM0004167          TM0004263               95.95     0.0130     0.0000     0.0000     0.0000     0.0000
TMC043             TM0004263          TM0004352               88.40     0.0130     0.0000     0.0000     0.0000     0.0000
TMC044             TM0004352          TM0004432               80.58     0.0130     0.0000     0.0000     0.0000     0.0000
TMC045             TM0004432          TM0004544              111.76     0.0130     0.0000     0.0000     0.0000     0.0000
TMC046             TM0004544          TM0004675              131.37     0.0130     0.0000     0.0000     0.0000     0.0000
TMC047             TM0004675          TM0004789              113.95     0.0130     0.0000     0.0000     0.0000     0.0000
TMC048             TM0004789          TM0004865               75.61     0.0130     0.0000     0.0000     0.0000     0.0000
TMC049             TM0004865          TM0004992              126.65     0.0130     0.0000     0.0000     0.0000     0.0000
TMC050             TM0004992          TM0005127              135.34     0.0130     0.0000     0.0000     0.0000     0.0000
TMC051             TM0005127          TM0005252              125.19     0.0130     0.0000     0.0000     0.0000     0.0000
TMC052             TM0005252          TM0005377              124.92     0.0130     0.0000     0.0000     0.0000     0.0000
TMC053             TM0005377          TM0005490              112.90     0.0130     0.0000     0.0000     0.0000     0.0000
TMC054             TM0005490          TM0005578               87.93     0.0130     0.0000     0.0000     0.0000     0.0000
TMC055             TM0005578          TM0005684              105.93     0.0130     0.0000     0.0000     0.0000     0.0000
TMC056             TM0005684          TM0005760               76.03     0.0130     0.0000     0.0000     0.0000     0.0000
TMC057             TM0005760          TM0005872              111.94     0.0130     0.0000     0.0000     0.0000     0.0000
TMC058             TM0005872          TM0005955               83.70     0.0130     0.0000     0.0000     0.0000     0.0000
TMC059             TM0005955          TM0006059              103.25     0.0130     0.0000     0.0000     0.0000     0.0000
TMC060             TM0006059          TM0006123               64.57     0.0130     0.0000     0.0000     0.0000     0.0000
TMC061             TM0006123          TM0006205               81.43     0.0130     0.0000     0.0000     0.0000     0.0000
TMC062             TM0006205          TM0006319              113.90     0.0130     0.0000     0.0000     0.0000     0.0000
TMC063             TM0006319          TM0006413               94.20     0.0130     0.0000     0.0000     0.0000     0.0000
TMC064             TM0006413          TM0006552              138.92     0.0130     0.0000     0.0000     0.0000     0.0000
TMC065             TM0006552          TM0006652              100.75     0.0130     0.0000     0.0000     0.0000     0.0000
TMC066             TM0006652          TM0006717               65.01     0.0130     0.0000     0.0000     0.0000     0.0000
TMC067             TM0006717          TM0006792               74.39     0.0130     0.0000     0.0000     0.0000     0.0000
TMC068             TM0006792          TM0006897              104.84     0.0130     0.0000     0.0000     0.0000     0.0000
TMC069             TM0006897          TM0006959               62.55     0.0130     0.0000     0.0000     0.0000     0.0000
TMC070             TM0006959          TM0007031               71.37     0.0130     0.0000     0.0000     0.0000     0.0000
TMC071             TM0007031          TM0007142              111.43     0.0130     0.0000     0.0000     0.0000     0.0000
TMC072             TM0007142          TM0007238               95.72     0.0130     0.0000     0.0000     0.0000     0.0000
TLC000             TM0007238          TL0000111              110.60     0.0130     0.0000     0.0000     0.0000     0.0000
TLC001             TL0000111          TL0000172               61.35     0.0130     0.0000     0.0000     0.0000     0.0000
TLC002             TL0000172          TL0000258               85.58     0.0130     0.0000     0.0000     0.0000     0.0000
TLC003             TL0000258          TL0000356               98.57     0.0130     0.0000     0.0000     0.0000     0.0000
TLC004             TL0000356          TL0000488              131.98     0.0130     0.0000     0.0000     0.0000     0.0000
TLC005             TL0000488          TL0000569               81.41     0.0130     0.0000     0.0000     0.0000     0.0000
TLC006             TL0000569          TL0000647               77.15     0.0130     0.0000     0.0000     0.0000     0.0000
TLC007             TL0000647          TL0000749              102.67     0.0130     0.0000     0.0000     0.0000     0.0000
TLC008             TL0000749          TL0000830               81.18     0.0130     0.0000     0.0000     0.0000     0.0000
TLC009             TL0000830          TL0000936              105.39     0.0130     0.0000     0.0000     0.0000     0.0000
TLC010             TL0000936          TL0001055              119.14     0.0130     0.0000     0.0000     0.0000     0.0000
TLC011             TL0001055          TL0001128               73.43     0.0130     0.0000     0.0000     0.0000     0.0000
TLC012             TL0001128          TL0001230              101.28     0.0130     0.0000     0.0000     0.0000     0.0000
TLC013             TL0001230          TL0001347              117.21     0.0130     0.0000     0.0000     0.0000     0.0000
TLC014             TL0001347          TL0001419               72.44     0.0130     0.0000     0.0000     0.0000     0.0000
TLC015             TL0001419          TL0001507               87.56     0.0130     0.0000     0.0000     0.0000     0.0000
TLC016             TL0001507          TL0001571               64.09     0.0130     0.0000     0.0000     0.0000     0.0000
TLC017             TL0001571          TL0001682              110.73     0.0130     0.0000     0.0000     0.0000     0.0000
TLC018             TL0001682          TL0001776               94.21     0.0130     0.0000     0.0000     0.0000     0.0000
TLC019             TL0001776          TL0001874               97.67     0.0130     0.0000     0.0000     0.0000     0.0000
TLC020             TL0001874          TL0001991              117.00     0.0130     0.0000     0.0000     0.0000     0.0000
TLC021             TL0001991          TL0002075               84.28     0.0130     0.0000     0.0000     0.0000     0.0000
TLC022             TL0002075          TL0002155               79.88     0.0130     0.0000     0.0000     0.0000     0.0000
TLC023             TL0002155          TL0002282              127.00     0.0130     0.0000     0.0000     0.0000     0.0000
TLC024             TL0002282          TL0002374               92.56     0.0130     0.0000     0.0000     0.0000     0.0000
TLC025             TL0002374          TL0002444               69.77     0.0130     0.0000     0.0000     0.0000     0.0000
TLC026             TL0002444          TL0002551              106.60     0.0130     0.0000     0.0000     0.0000     0.0000
TLC027             TL0002551          TL0002658              107.73     0.0130     0.0000     0.0000     0.0000     0.0000
TLC028             TL0002658          TL0002767              108.89     0.0130     0.0000     0.0000     0.0000     0.0000
TLC029             TL0002767          TL0002880              112.78     0.0130     0.0000     0.0000     0.0000     0.0000
TLC030             TL0002880          TL0002962               81.44     0.0130     0.0000     0.0000     0.0000     0.0000
TLC031             TL0002962          TL0003039               77.34     0.0130     0.0000     0.0000     0.0000     0.0000
TLC032             TL0003039          TL0003126               87.26     0.0130     0.0000     0.0000     0.0000     0.0000
TLC033             TL0003126          TL0003263              137.25     0.0130     0.0000     0.0000     0.0000     0.0000
TLC034             TL0003263          TL0003397              133.85     0.0130     0.0000     0.0000     0.0000     0.0000
TLC035             TL0003397          TL0003471               73.66     0.0130     0.0000     0.0000     0.0000     0.0000
TLC036             TL0003471          TL0003550               78.72     0.0130     0.0000     0.0000     0.0000     0.0000
TLC037             TL0003550          TL0003627               77.64     0.0130     0.0000     0.0000     0.0000     0.0000
TLC038             TL0003627          TL0003696               68.27     0.0130     0.0000     0.0000     0.0000     0.0000
TLC039             TL0003696          TL0003812              116.87     0.0130     0.0000     0.0000     0.0000     0.0000
TLC040             TL0003812          TL0003912               99.47     0.0130     0.0000     0.0000     0.0000     0.0000
TLC041             TL0003912          TL0004035              123.00     0.0130     0.0000     0.0000     0.0000     0.0000
TLC042             TL0004035          TL0004124               89.15     0.0130     0.0000     0.0000     0.0000     0.0000
TLC043             TL0004124          TL0004231              107.06     0.0130     0.0000     0.0000     0.0000     0.0000
TLC044             TL0004231          TL0004323               91.72     0.0130     0.0000     0.0000     0.0000     0.0000
TLC045             TL0004323          TL0004460              137.47     0.0130     0.0000     0.0000     0.0000     0.0000
TLC046             TL0004460          TL0004588              127.58     0.0130     0.0000     0.0000     0.0000     0.0000
TLC047             TL0004588          TL0004707              118.65     0.0130     0.0000     0.0000     0.0000     0.0000
TLC048             TL0004707          TL0004797               90.04     0.0130     0.0000     0.0000     0.0000     0.0000
TLC049             TL0004797          TL0004894               97.18     0.0130     0.0000     0.0000     0.0000     0.0000
TLC050             TL0004894          TL0005003              109.65     0.0130     0.0000     0.0000     0.0000     0.0000
TLC051             TL0005003          TL0005119              115.36     0.0130     0.0000     0.0000     0.0000     0.0000
TLC052             TL0005119          TL0005207               88.39     0.0130     0.0000     0.0000     0.0000     0.0000
TLC053             TL0005207          TL0005323              116.17     0.0130     0.0000     0.0000     0.0000     0.0000
TLC054             TL0005323          TL0005447              123.92     0.0130     0.0000     0.0000     0.0000     0.0000
TLC055             TL0005447          TL0005564              116.47     0.0130     0.0000     0.0000     0.0000     0.0000
TLC056             TL0005564          TL0005637               73.38     0.0130     0.0000     0.0000     0.0000     0.0000
TLC057             TL0005637          TL0005767              130.08     0.0130     0.0000     0.0000     0.0000     0.0000
TLC058             TL0005767          TL0005840               72.93     0.0130     0.0000     0.0000     0.0000     0.0000
TLC059             TL0005840          TL0005912               71.62     0.0130     0.0000     0.0000     0.0000     0.0000
TLC060             TL0005912          TL0006049              137.26     0.0130     0.0000     0.0000     0.0000     0.0000
TLC061             TL0006049          TL0006125               75.92     0.0130     0.0000     0.0000     0.0000     0.0000
TLC062             TL0006125          TL0006238              113.43     0.0130     0.0000     0.0000     0.0000     0.0000
TLC063             TL0006238          TL0006375              136.48     0.0130     0.0000     0.0000     0.0000     0.0000
TLC064             TL0006375          TL0006486              111.04     0.0130     0.0000     0.0000     0.0000     0.0000
TLC065             TL0006486          TL0006608              121.91     0.0130     0.0000     0.0000     0.0000     0.0000
TLC066             TL0006608          TL0006736              128.06     0.0130     0.0000     0.0000     0.0000     0.0000
TLC067             TL0006736          TL0006842              106.68     0.0130     0.0000     0.0000     0.0000     0.0000
TLC068             TL0006842          TL0006906               63.78     0.0130     0.0000     0.0000     0.0000     0.0000
TLC069             TL0006906          TL0006972               65.87     0.0130     0.0000     0.0000     0.0000     0.0000
TLC070             TL0006972          TL0007106              134.22     0.0130     0.0000     0.0000     0.0000     0.0000
TLC071             TL0007106          TL0007246              139.90     0.0130     0.0000     0.0000     0.0000     0.0000
TLC072             TL0007246          TL0007331               84.47     0.0130     0.0000     0.0000     0.0000     0.0000
TLC073             TL0007331          TL0007391               60.11     0.0130     0.0000     0.0000     0.0000     0.0000
TLC074             TL0007391          TL0007482               90.72     0.0130     0.0000     0.0000     0.0000     0.0000
TLC075             TL0007482          TL0007592              110.48     0.0130     0.0000     0.0000     0.0000     0.0000
TLC076             TL0007592          TL0007711              118.51     0.0130     0.0000     0.0000     0.0000     0.0000
TLC077             TL0007711          TL0007780               69.63     0.0130     0.0000     0.0000     0.0000     0.0000
TLC078             TL0007780          TL0007853               72.42     0.0130     0.0000     0.0000     0.0000     0.0000
TLC079             TL0007853          TL0007940               86.96     0.0130     0.0000     0.0000     0.0000     0.0000
TLC080             TL0007940          TL0008058              118.84     0.0130     0.0000     0.0000     0.0000     0.0000
TLC081             TL0008058          TL0008156               97.58     0.0130     0.0000     0.0000     0.0000     0.0000
TLC082             TL0008156          TL0008291              135.40     0.0130     0.0000     0.0000     0.0000     0.0000
TLC083             TL0008291          TL0008415              123.92     0.0130     0.0000     0.0000     0.0000     0.0000
TLC084             TL0008415          TL0008539              123.99     0.0130     0.0000     0.0000     0.0000     0.0000
TLC085             TL0008539          TL0008657              118.00     0.0130     0.0000     0.0000     0.0000     0.0000
TLC086             TL0008657          TL0008764              107.16     0.0130     0.0000     0.0000     0.0000     0.0000
TLC087             TL0008764          FRS_Basin               64.81     0.0130     0.0000     0.0000     0.0000     0.0000
BAC000             BA0000000          BA0000066               65.55     0.0130     0.0000     0.0000     0.0000     0.0000
BAC001             BA0000066          BA0000147               81.92     0.0130     0.0000     0.0000     0.0000     0.0000
BAC002             BA0000147          BA0000248              100.45     0.0130     0.0000     0.0000     0.0000     0.0000
BAC003             BA0000248          BA0000357              108.65     0.0130     0.0000     0.0000     0.0000     0.0000
BAC004             BA0000357          BA0000491              134.36     0.0130     0.0000     0.0000     0.0000     0.0000
BAC005             BA0000491          BA0000615              124.08     0.0130     0.0000     0.0000     0.0000     0.0000
BAC006             BA0000615          BA0000735              119.71     0.0130     0.0000     0.0000     0.0000     0.0000
BAC007             BA0000735          BA0000822               86.98     0.0130     0.0000     0.0000     0.0000     0.0000
BAC008             BA0000822          BA0000926              103.98     0.0130     0.0000     0.0000     0.0000     0.0000
BAC009             BA0000926          BA0000993               67.65     0.0130     0.0000     0.0000     0.0000     0.0000
BAC010             BA0000993          BA0001132              138.26     0.0130     0.0000     0.0000     0.0000     0.0000
BAC011             BA0001132          BA0001208               76.74     0.0130     0.0000     0.0000     0.0000     0.0000
BAC012             BA0001208          BA0001310              101.36     0.0130     0.0000     0.0000     0.0000     0.0000
BAC013             BA0001310          BA0001448              137.91     0.0130     0.0000     0.0000     0.0000     0.0000
BAC014             BA0001448          BA0001560              112.39     0.0130     0.0000     0.0000     0.0000     0.0000
BAC015             BA0001560          BA0001622               62.09     0.0130     0.0000     0.0000     0.0000     0.0000
BAC016             BA0001622          BA0001740              117.59     0.0130     0.0000     0.0000     0.0000     0.0000
BAC017             BA0001740          BA0001867              127.20     0.0130     0.0000     0.0000     0.0000     0.0000
BAC018             BA0001867          BA0001947               79.89     0.0130     0.0000     0.0000     0.0000     0.0000
BAC019             BA0001947          BA0002065              118.14     0.0130     0.0000     0.0000     0.0000     0.0000
BAC020             BA0002065          BA0002151               85.78     0.0130     0.0000     0.0000     0.0000     0.0000
BAC021             BA0002151          BA0002213               62.40     0.0130     0.0000     0.0000     0.0000     0.0000
BAC022             BA0002213          BA0002283               70.12     0.0130     0.0000     0.0000     0.0000     0.0000
BAC023             BA0002283          BA0002376               93.21     0.0130     0.0000     0.0000     0.0000     0.0000
BAC024             BA0002376          BA0002479              102.78     0.0130     0.0000     0.0000     0.0000     0.0000
BAC025             BA0002479          BA0002576               97.28     0.0130     0.0000     0.0000     0.0000     0.0000
BAC026             BA0002576          BA0002678              101.55     0.0130     0.0000     0.0000     0.0000     0.0000
BAC027             BA0002678          BA0002746               67.63     0.0130     0.0000     0.0000     0.0000     0.0000
BAC028             BA0002746          BA0002849              103.36     0.0130     0.0000     0.0000     0.0000     0.0000
BAC029             BA0002849          BA0002945               96.42     0.0130     0.0000     0.0000     0.0000     0.0000
BAC030             BA0002945          BA0003033               87.90     0.0130     0.0000     0.0000     0.0000     0.0000
BAC031             BA0003033          BA0003095               61.33     0.0130     0.0000     0.0000     0.0000     0.0000
BAC032             BA0003095          BA0003235              139.87     0.0130     0.0000     0.0000     0.0000     0.0000
BAC033             BA0003235          BA0003311               76.86     0.0130     0.0000     0.0000     0.0000     0.0000
BAC034             BA0003311          BA0003404               92.50     0.0130     0.0000     0.0000     0.0000     0.0000
BAC035             BA0003404          BA0003499               95.56     0.0130     0.0000     0.0000     0.0000     0.0000
BAC036             BA0003499          BA0003631              131.12     0.0130     0.0000     0.0000     0.0000     0.0000
BAC037             BA0003631          BA0003743              112.16     0.0130     0.0000     0.0000     0.0000     0.0000
BAC038             BA0003743          BA0003851              108.71     0.0130     0.0000     0.0000     0.0000     0.0000
BAC039             BA0003851          BA0003922               70.83     0.0130     0.0000     0.0000     0.0000     0.0000
BAC040             BA0003922          BA0004020               97.34     0.0130     0.0000     0.0000     0.0000     0.0000
BAC041             BA0004020          BA0004157              137.00     0.0130     0.0000     0.0000     0.0000     0.0000
BAC042             BA0004157          BA0004271              114.78     0.0130     0.0000     0.0000     0.0000     0.0000
BAC043             BA0004271          BA0004410              138.89     0.0130     0.0000     0.0000     0.0000     0.0000
BAC044             BA0004410          BA0004543              133.07     0.0130     0.0000     0.0000     0.0000     0.0000
BAC045             BA0004543          BA0004613               69.97     0.0130     0.0000     0.0000     0.0000     0.0000
BAC046             BA0004613          BA0004710               96.81     0.0130     0.0000     0.0000     0.0000     0.0000
BAC047             BA0004710          BA0004823              113.09     0.0130     0.0000     0.0000     0.0000     0.0000
BAC048             BA0004823          BA0004893               70.20     0.0130     0.0000     0.0000     0.0000     0.0000
BAC049             BA0004893          BA0004985               91.90     0.0130     0.0000     0.0000     0.0000     0.0000
BAC050             BA0004985          BA0005061               75.72     0.0130     0.0000     0.0000     0.0000     0.0000
BAC051             BA0005061          BA0005180              119.44     0.0130     0.0000     0.0000     0.0000     0.0000
BAC052             BA0005180          BA0005279               98.24     0.0130     0.0000     0.0000     0.0000     0.0000
BAC053             BA0005279          BA0005359               80.55     0.0130     0.0000     0.0000     0.0000     0.0000
BAC054             BA0005359          BA0005423               63.80     0.0130     0.0000     0.0000     0.0000     0.0000
BAC055             BA0005423          BA0005511               88.43     0.0130     0.0000     0.0000     0.0000     0.0000
BAC056             BA0005511          BA0005580               68.77     0.0130     0.0000     0.0000     0.0000     0.0000
BAC057             BA0005580          BA0005650               70.04     0.0130     0.0000     0.0000     0.0000     0.0000
BAC058             BA0005650          BA0005767              116.87     0.0130     0.0000     0.0000     0.0000     0.0000
BAC059             BA0005767          BA0005860               92.73     0.0130     0.0000     0.0000     0.0000     0.0000
BAC060             BA0005860          BA0005945               85.39     0.0130     0.0000     0.0000     0.0000     0.0000
BAC061             BA0005945          BA0006053              107.76     0.0130     0.0000     0.0000     0.0000     0.0000
BAC062             BA0006053          BA0006170              117.04     0.0130     0.0000     0.0000     0.0000     0.0000
BAC063             BA0006170          BA0006275              105.28     0.0130     0.0000     0.0000     0.0000     0.0000
BAC064             BA0006275          BA0006413              137.36     0.0130     0.0000     0.0000     0.0000     0.0000
BAC065             BA0006413          BA0006510               97.50     0.0130     0.0000     0.0000     0.0000     0.0000
BAC066             BA0006510          BA0006572               61.78     0.0130     0.0000     0.0000     0.0000     0.0000
BAC067             BA0006572          BA0006702              129.93     0.0130     0.0000     0.0000     0.0000     0.0000
BAC068             BA0006702          BA0006807              104.96     0.0130     0.0000     0.0000     0.0000     0.0000
BAC069             BA0006807          BA0006902               95.17     0.0130     0.0000     0.0000     0.0000     0.0000
BAC070             BA0006902          BA0006971               68.66     0.0130     0.0000     0.0000     0.0000     0.0000
BAC071             BA0006971          BA0007053               82.58     0.0130     0.0000     0.0000     0.0000     0.0000
BAC072             BA0007053          TU0009817               89.15     0.0130     0.0000     0.0000     0.0000     0.0000
BBC000             BB0000000          BB0000130              130.04     0.0130     0.0000     0.0000     0.0000     0.0000
BBC001             BB0000130          BB0000201               71.20     0.0130     0.0000     0.0000     0.0000     0.0000
BBC002             BB0000201          BB0000273               71.85     0.0130     0.0000     0.0000     0.0000     0.0000
BBC003             BB0000273          BB0000335               62.20     0.0130     0.0000     0.0000     0.0000     0.0000
BBC004             BB0000335          BB0000469              133.37     0.0130     0.0000     0.0000     0.0000     0.0000
BBC005             BB0000469          BB0000568               99.36     0.0130     0.0000     0.0000     0.0000     0.0000
BBC006             BB0000568          BB0000668              100.09     0.0130     0.0000     0.0000     0.0000     0.0000
BBC007             BB0000668          BB0000778              110.23     0.0130     0.0000     0.0000     0.0000     0.0000
BBC008             BB0000778          BB0000915              136.88     0.0130     0.0000     0.0000     0.0000     0.0000
BBC009             BB0000915          BB0000981               65.94     0.0130     0.0000     0.0000     0.0000     0.0000
BBC010             BB0000981          BB0001065               84.10     0.0130     0.0000     0.0000     0.0000     0.0000
BBC011             BB0001065          BB0001168              103.23     0.0130     0.0000     0.0000     0.0000     0.0000
BBC012             BB0001168          BB0001229               60.36     0.0130     0.0000     0.0000     0.0000     0.0000
BBC013             BB0001229          BB0001359              130.56     0.0130     0.0000     0.0000     0.0000     0.0000
BBC014             BB0001359          BB0001422               63.06     0.0130     0.0000     0.0000     0.0000     0.0000
BBC015             BB0001422          BB0001540              117.48     0.0130     0.0000     0.0000     0.0000     0.0000
BBC016             BB0001540          BB0001605               64.87     0.0130     0.0000     0.0000     0.0000     0.0000
BBC017             BB0001605          BB0001679               74.33     0.0130     0.0000     0.0000     0.0000     0.0000
BBC018             BB0001679          BB0001817              138.35     0.0130     0.0000     0.0000     0.0000     0.0000
BBC019             BB0001817          BB0001934              116.55     0.0130     0.0000     0.0000     0.0000     0.0000
BBC020             BB0001934          BB0002032               97.59     0.0130     0.0000     0.0000     0.0000     0.0000
BBC021             BB0002032          BB0002116               84.40     0.0130     0.0000     0.0000     0.0000     0.0000
BBC022             BB0002116          BB0002243              126.54     0.0130     0.0000     0.0000     0.0000     0.0000
BBC023             BB0002243          BB0002336               93.35     0.0130     0.0000     0.0000     0.0000     0.0000
BBC024             BB0002336          BB0002415               79.08     0.0130     0.0000     0.0000     0.0000     0.0000
BBC025             BB0002415          BB0002507               92.09     0.0130     0.0000     0.0000     0.0000     0.0000
BBC026             BB0002507          BB0002622              114.48     0.0130     0.0000     0.0000     0.0000     0.0000
BBC027             BB0002622          BB0002721               99.28     0.0130     0.0000     0.0000     0.0000     0.0000
BBC028             BB0002721          BB0002839              117.68     0.0130     0.0000     0.0000     0.0000     0.0000
BBC029             BB0002839          BB0002977              138.22     0.0130     0.0000     0.0000     0.0000     0.0000
BBC030             BB0002977          BB0003079              102.11     0.0130     0.0000     0.0000     0.0000     0.0000
BBC031             BB0003079          BB0003149               70.38     0.0130     0.0000     0.0000     0.0000     0.0000
BBC032             BB0003149          BB0003278              128.71     0.0130     0.0000     0.0000     0.0000     0.0000
BBC033             BB0003278          BB0003350               71.56     0.0130     0.0000     0.0000     0.0000     0.0000
BBC034             BB0003350          BB0003489              139.46     0.0130     0.0000     0.0000     0.0000     0.0000
BBC035             BB0003489          BB0003628              139.48     0.0130     0.0000     0.0000     0.0000     0.0000
BBC036             BB0003628          BB0003736              107.35     0.0130     0.0000     0.0000     0.0000     0.0000
BBC037             BB0003736          BB0003841              105.27     0.0130     0.0000     0.0000     0.0000     0.0000
BBC038             BB0003841          BB0003920               78.61     0.0130     0.0000     0.0000     0.0000     0.0000
BBC039             BB0003920          BB0004045              125.21     0.0130     0.0000     0.0000     0.0000     0.0000
BBC040             BB0004045          BB0004134               89.32     0.0130     0.0000     0.0000     0.0000     0.0000
BBC041             BB0004134          BB0004265              130.51     0.0130     0.0000     0.0000     0.0000     0.0000
BBC042             BB0004265          BB0004326               60.83     0.0130     0.0000     0.0000     0.0000     0.0000
BBC043             BB0004326          BB0004414               88.21     0.0130     0.0000     0.0000     0.0000     0.0000
BBC044             BB0004414          BB0004499               85.11     0.0130     0.0000     0.0000     0.0000     0.0000
BBC045             BB0004499          BB0004614              115.18     0.0130     0.0000     0.0000     0.0000     0.0000
BBC046             BB0004614          BB0004734              119.73     0.0130     0.0000     0.0000     0.0000     0.0000
BBC047             BB0004734          BB0004858              124.44     0.0130     0.0000     0.0000     0.0000     0.0000
BBC048             BB0004858          BB0004953               94.83     0.0130     0.0000     0.0000     0.0000     0.0000
BBC049             BB0004953          BB0005056              103.42     0.0130     0.0000     0.0000     0.0000     0.0000
BBC050             BB0005056          BB0005158              101.80     0.0130     0.0000     0.0000     0.0000     0.0000
BBC051             BB0005158          BB0005220               61.82     0.0130     0.0000     0.0000     0.0000     0.0000
BBC052             BB0005220          BB0005347              127.05     0.0130     0.0000     0.0000     0.0000     0.0000
BBC053             BB0005347          BB0005425               78.30     0.0130     0.0000     0.0000     0.0000     0.0000
BBC054             BB0005425          TM0007238              127.53     0.0130     0.0000     0.0000     0.0000     0.0000

[ORIFICES]
;;Name             FromNode           ToNode             Type       Offset     Cd         Gated
FRS_Outlet         FRS_Basin          OUT_RIVER          SIDE           0.0000     0.6500 NO
FRS_Overflow       FRS_Basin          OUT_OVERFLOW       SIDE           8.0000     1.0000 NO

[XSECTIONS]
;;Link             Shape        Geom1      Geom2 Geom3 Geom4 Barrels
TUC000             CIRCULAR         6.0000 0     0     0     1
TUC001             CIRCULAR         6.0000 0     0     0     1
TUC002             CIRCULAR         6.0000 0     0     0     1
TUC003             CIRCULAR         6.0000 0     0     0     1
TUC004             CIRCULAR         6.0000 0     0     0     1
TUC005             CIRCULAR         6.0000 0     0     0     1
TUC006             CIRCULAR         6.0000 0     0     0     1
TUC007             CIRCULAR         6.0000 0     0     0     1
TUC008             CIRCULAR         6.0000 0     0     0     1
TUC009             CIRCULAR         6.0000 0     0     0     1
TUC010             CIRCULAR         6.0000 0     0     0     1
TUC011             CIRCULAR         6.0000 0     0     0     1
TUC012             CIRCULAR         6.0000 0     0     0     1
TUC013             CIRCULAR         6.0000 0     0     0     1
TUC014             CIRCULAR         6.0000 0     0     0     1
TUC015             CIRCULAR         6.0000 0     0     0     1
TUC016             CIRCULAR         6.0000 0     0     0     1
TUC017             CIRCULAR         6.0000 0     0     0     1
TUC018             CIRCULAR         6.0000 0     0     0     1
TUC019             CIRCULAR         6.0000 0     0     0     1
TUC020             CIRCULAR         6.0000 0     0     0     1
TUC021             CIRCULAR         6.0000 0     0     0     1
TUC022             CIRCULAR         6.0000 0     0     0     1
TUC023             CIRCULAR         6.0000 0     0     0     1
TUC024             CIRCULAR         6.0000 0     0     0     1
TUC025             CIRCULAR         6.0000 0     0     0     1
TUC026             CIRCULAR         6.0000 0     0     0     1
TUC027             CIRCULAR         6.0000 0     0     0     1
TUC028             CIRCULAR         6.0000 0     0     0     1
TUC029             CIRCULAR         6.0000 0     0     0     1
TUC030             CIRCULAR         6.0000 0     0     0     1
TUC031             CIRCULAR         6.0000 0     0     0     1
TUC032             CIRCULAR         6.0000 0     0     0     1
TUC033             CIRCULAR         6.0000 0     0     0     1
TUC034             CIRCULAR         6.0000 0     0     0     1
TUC035             CIRCULAR         6.0000 0     0     0     1
TUC036             CIRCULAR         6.0000 0     0     0     1
TUC037             CIRCULAR         6.0000 0     0     0     1
TUC038             CIRCULAR         6.0000 0     0     0     1
TUC039             CIRCULAR         6.0000 0     0     0     1
TUC040             CIRCULAR         6.0000 0     0     0     1
TUC041             CIRCULAR         6.0000 0     0     0     1
TUC042             CIRCULAR         6.0000 0     0     0     1
TUC043             CIRCULAR         6.0000 0     0     0     1
TUC044             CIRCULAR         6.0000 0     0     0     1
TUC045             CIRCULAR         6.0000 0     0     0     1
TUC046             CIRCULAR         6.0000 0     0     0     1
TUC047             CIRCULAR         6.0000 0     0     0     1
TUC048             CIRCULAR         6.0000 0     0     0     1
TUC049             CIRCULAR         6.0000 0     0     0     1
TUC050             CIRCULAR         6.0000 0     0     0     1
TUC051             CIRCULAR         6.0000 0     0     0     1
TUC052             CIRCULAR         6.0000 0     0     0     1
TUC053             CIRCULAR         6.0000 0     0     0     1
TUC054             CIRCULAR         6.0000 0     0     0     1
TUC055             CIRCULAR         6.0000 0     0     0     1
TUC056             CIRCULAR         6.0000 0     0     0     1
TUC057             CIRCULAR         6.0000 0     0     0     1
TUC058             CIRCULAR         6.0000 0     0     0     1
TUC059             CIRCULAR         6.0000 0     0     0     1
TUC060             CIRCULAR         6.0000 0     0     0     1
TUC061             CIRCULAR         6.0000 0     0     0     1
TUC062             CIRCULAR         6.0000 0     0     0     1
TUC063             CIRCULAR         6.0000 0     0     0     1
TUC064             CIRCULAR         6.0000 0     0     0     1
TUC065             CIRCULAR         6.0000 0     0     0     1
TUC066             CIRCULAR         6.0000 0     0     0     1
TUC067             CIRCULAR         6.0000 0     0     0     1
TUC068             CIRCULAR         6.0000 0     0     0     1
TUC069             CIRCULAR         6.0000 0     0     0     1
TUC070             CIRCULAR         6.0000 0     0     0     1
TUC071             CIRCULAR         6.0000 0     0     0     1
TUC072             CIRCULAR         6.0000 0     0     0     1
TUC073             CIRCULAR         6.0000 0     0     0     1
TUC074             CIRCULAR         6.0000 0     0     0     1
TUC075             CIRCULAR         6.0000 0     0     0     1
TUC076             CIRCULAR         6.0000 0     0     0     1
TUC077             CIRCULAR         6.0000 0     0     0     1
TUC078             CIRCULAR         6.0000 0     0     0     1
TUC079             CIRCULAR         6.0000 0     0     0     1
TUC080             CIRCULAR         6.0000 0     0     0     1
TUC081             CIRCULAR         6.0000 0     0     0     1
TUC082             CIRCULAR         6.0000 0     0     0     1
TUC083             CIRCULAR         6.0000 0     0     0     1
TUC084             CIRCULAR         6.0000 0     0     0     1
TUC085             CIRCULAR         6.0000 0     0     0     1
TUC086             CIRCULAR         6.0000 0     0     0     1
TUC087             CIRCULAR         6.0000 0     0     0     1
TUC088             CIRCULAR         6.0000 0     0     0     1
TUC089             CIRCULAR         6.0000 0     0     0     1
TUC090             CIRCULAR         6.0000 0     0     0     1
TUC091             CIRCULAR         6.0000 0     0     0     1
TUC092             CIRCULAR         6.0000 0     0     0     1
TUC093             CIRCULAR         6.0000 0     0     0     1
TUC094             CIRCULAR         6.0000 0     0     0     1
TUC095             CIRCULAR         6.0000 0     0     0     1
TUC096             CIRCULAR         6.0000 0     0     0     1
TUC097             CIRCULAR         6.0000 0     0     0     1
TMC000             CIRCULAR         6.5000 0     0     0     1
TMC001             CIRCULAR         6.5000 0     0     0     1
TMC002             CIRCULAR         6.5000 0     0     0     1
TMC003             CIRCULAR         6.5000 0     0     0     1
TMC004             CIRCULAR         6.5000 0     0     0     1
TMC005             CIRCULAR         6.5000 0     0     0     1
TMC006             CIRCULAR         6.5000 0     0     0     1
TMC007             CIRCULAR         6.5000 0     0     0     1
TMC008             CIRCULAR         6.5000 0     0     0     1
TMC009             CIRCULAR         6.5000 0     0     0     1
TMC010             CIRCULAR         6.5000 0     0     0     1
TMC011             CIRCULAR         6.5000 0     0     0     1
TMC012             CIRCULAR         6.5000 0     0     0     1
TMC013             CIRCULAR         6.5000 0     0     0     1
TMC014             CIRCULAR         6.5000 0     0     0     1
TMC015             CIRCULAR         6.5000 0     0     0     1
TMC016             CIRCULAR         6.5000 0     0     0     1
TMC017             CIRCULAR         6.5000 0     0     0     1
TMC018             CIRCULAR         6.5000 0     0     0     1
TMC019             CIRCULAR         6.5000 0     0     0     1
TMC020             CIRCULAR         6.5000 0     0     0     1
TMC021             CIRCULAR         6.5000 0     0     0     1
TMC022             CIRCULAR         6.5000 0     0     0     1
TMC023             CIRCULAR         6.5000 0     0     0     1
TMC024             CIRCULAR         6.5000 0     0     0     1
TMC025             CIRCULAR         6.5000 0     0     0     1
TMC026             CIRCULAR         6.5000 0     0     0     1
TMC027             CIRCULAR         6.5000 0     0     0     1
TMC028             CIRCULAR         6.5000 0     0     0     1
TMC029             CIRCULAR         6.5000 0     0     0     1
TMC030             CIRCULAR         6.5000 0     0     0     1
TMC031             CIRCULAR         6.5000 0     0     0     1
TMC032             CIRCULAR         6.5000 0     0     0     1
TMC033             CIRCULAR         6.5000 0     0     0     1
TMC034             CIRCULAR         6.5000 0     0     0     1
TMC035             CIRCULAR         6.5000 0     0     0     1
TMC036             CIRCULAR         6.5000 0     0     0     1
TMC037             CIRCULAR         6.5000 0     0     0     1
TMC038             CIRCULAR         6.5000 0     0     0     1
TMC039             CIRCULAR         6.5000 0     0     0     1
TMC040             CIRCULAR         6.5000 0     0     0     1
TMC041             CIRCULAR         6.5000 0     0     0     1
TMC042             CIRCULAR         6.5000 0     0     0     1
TMC043             CIRCULAR         6.5000 0     0     0     1
TMC044             CIRCULAR         6.5000 0     0     0     1
TMC045             CIRCULAR         6.5000 0     0     0     1
TMC046             CIRCULAR         6.5000 0     0     0     1
TMC047             CIRCULAR         6.5000 0     0     0     1
TMC048             CIRCULAR         6.5000 0     0     0     1
TMC049             CIRCULAR         6.5000 0     0     0     1
TMC050             CIRCULAR         6.5000 0     0     0     1
TMC051             CIRCULAR         6.5000 0     0     0     1
TMC052             CIRCULAR         6.5000 0     0     0     1
TMC053             CIRCULAR         6.5000 0     0     0     1
TMC054             CIRCULAR         6.5000 0     0     0     1
TMC055             CIRCULAR         6.5000 0     0     0     1
TMC056             CIRCULAR         6.5000 0     0     0     1
TMC057             CIRCULAR         6.5000 0     0     0     1
TMC058             CIRCULAR         6.5000 0     0     0     1
TMC059             CIRCULAR         6.5000 0     0     0     1
TMC060             CIRCULAR         6.5000 0     0     0     1
TMC061             CIRCULAR         6.5000 0     0     0     1
TMC062             CIRCULAR         6.5000 0     0     0     1
TMC063             CIRCULAR         6.5000 0     0     0     1
TMC064             CIRCULAR         6.5000 0     0     0     1
TMC065             CIRCULAR         6.5000 0     0     0     1
TMC066             CIRCULAR         6.5000 0     0     0     1
TMC067             CIRCULAR         6.5000 0     0     0     1
TMC068             CIRCULAR         6.5000 0     0     0     1
TMC069             CIRCULAR         6.5000 0     0     0     1
TMC070             CIRCULAR         6.5000 0     0     0     1
TMC071             CIRCULAR         6.5000 0     0     0     1
TMC072             CIRCULAR         6.5000 0     0     0     1
TLC000             CIRCULAR         7.5000 0     0     0     1
TLC001             CIRCULAR         7.5000 0     0     0     1
TLC002             CIRCULAR         7.5000 0     0     0     1
TLC003             CIRCULAR         7.5000 0     0     0     1
TLC004             CIRCULAR         7.5000 0     0     0     1
TLC005             CIRCULAR         7.5000 0     0     0     1
TLC006             CIRCULAR         7.5000 0     0     0     1
TLC007             CIRCULAR         7.5000 0     0     0     1
TLC008             CIRCULAR         7.5000 0     0     0     1
TLC009             CIRCULAR         7.5000 0     0     0     1
TLC010             CIRCULAR         7.5000 0     0     0     1
TLC011             CIRCULAR         7.5000 0     0     0     1
TLC012             CIRCULAR         7.5000 0     0     0     1
TLC013             CIRCULAR         7.5000 0     0     0     1
TLC014             CIRCULAR         7.5000 0     0     0     1
TLC015             CIRCULAR         7.5000 0     0     0     1
TLC016             CIRCULAR         7.5000 0     0     0     1
TLC017             CIRCULAR         7.5000 0     0     0     1
TLC018             CIRCULAR         7.5000 0     0     0     1
TLC019             CIRCULAR         7.5000 0     0     0     1
TLC020             CIRCULAR         7.5000 0     0     0     1
TLC021             CIRCULAR         7.5000 0     0     0     1
TLC022             CIRCULAR         7.5000 0     0     0     1
TLC023             CIRCULAR         7.5000 0     0     0     1
TLC024             CIRCULAR         7.5000 0     0     0     1
TLC025             CIRCULAR         7.5000 0     0     0     1
TLC026             CIRCULAR         7.5000 0     0     0     1
TLC027             CIRCULAR         7.5000 0     0     0     1
TLC028             CIRCULAR         7.5000 0     0     0     1
TLC029             CIRCULAR         7.5000 0     0     0     1
TLC030             CIRCULAR         7.5000 0     0     0     1
TLC031             CIRCULAR         7.5000 0     0     0     1
TLC032             CIRCULAR         7.5000 0     0     0     1
TLC033             CIRCULAR         7.5000 0     0     0     1
TLC034             CIRCULAR         7.5000 0     0     0     1
TLC035             CIRCULAR         7.5000 0     0     0     1
TLC036             CIRCULAR         7.5000 0     0     0     1
TLC037             CIRCULAR         7.5000 0     0     0     1
TLC038             CIRCULAR         7.5000 0     0     0     1
TLC039             CIRCULAR         7.5000 0     0     0     1
TLC040             CIRCULAR         7.5000 0     0     0     1
TLC041             CIRCULAR         7.5000 0     0     0     1
TLC042             CIRCULAR         7.5000 0     0     0     1
TLC043             CIRCULAR         7.5000 0     0     0     1
TLC044             CIRCULAR         7.5000 0     0     0     1
TLC045             CIRCULAR         7.5000 0     0     0     1
TLC046             CIRCULAR         7.5000 0     0     0     1
TLC047             CIRCULAR         7.5000 0     0     0     1
TLC048             CIRCULAR         7.5000 0     0     0     1
TLC049             CIRCULAR         7.5000 0     0     0     1
TLC050             CIRCULAR         7.5000 0     0     0     1
TLC051             CIRCULAR         7.5000 0     0     0     1
TLC052             CIRCULAR         7.5000 0     0     0     1
TLC053             CIRCULAR         7.5000 0     0     0     1
TLC054             CIRCULAR         7.5000 0     0     0     1
TLC055             CIRCULAR         7.5000 0     0     0     1
TLC056             CIRCULAR         7.5000 0     0     0     1
TLC057             CIRCULAR         7.5000 0     0     0     1
TLC058             CIRCULAR         7.5000 0     0     0     1
TLC059             CIRCULAR         7.5000 0     0     0     1
TLC060             CIRCULAR         7.5000 0     0     0     1
TLC061             CIRCULAR         7.5000 0     0     0     1
TLC062             CIRCULAR         7.5000 0     0     0     1
TLC063             CIRCULAR         7.5000 0     0     0     1
TLC064             CIRCULAR         7.5000 0     0     0     1
TLC065             CIRCULAR         7.5000 0     0     0     1
TLC066             CIRCULAR         7.5000 0     0     0     1
TLC067             CIRCULAR         7.5000 0     0     0     1
TLC068             CIRCULAR         7.5000 0     0     0     1
TLC069             CIRCULAR         7.5000 0     0     0     1
TLC070             CIRCULAR         7.5000 0     0     0     1
TLC071             CIRCULAR         7.5000 0     0     0     1
TLC072             CIRCULAR         7.5000 0     0     0     1
TLC073             CIRCULAR         7.5000 0     0     0     1
TLC074             CIRCULAR         7.5000 0     0     0     1
TLC075             CIRCULAR         7.5000 0     0     0     1
TLC076             CIRCULAR         7.5000 0     0     0     1
TLC077             CIRCULAR         7.5000 0     0     0     1
TLC078             CIRCULAR         7.5000 0     0     0     1
TLC079             CIRCULAR         7.5000 0     0     0     1
TLC080             CIRCULAR         7.5000 0     0     0     1
TLC081             CIRCULAR         7.5000 0     0     0     1
TLC082             CIRCULAR         7.5000 0     0     0     1
TLC083             CIRCULAR         7.5000 0     0     0     1
TLC084             CIRCULAR         7.5000 0     0     0     1
TLC085             CIRCULAR         7.5000 0     0     0     1
TLC086             CIRCULAR         7.5000 0     0     0     1
TLC087             CIRCULAR         7.5000 0     0     0     1
BAC000             CIRCULAR         4.0000 0     0     0     1
BAC001             CIRCULAR         4.0000 0     0     0     1
BAC002             CIRCULAR         4.0000 0     0     0     1
BAC003             CIRCULAR         4.0000 0     0     0     1
BAC004             CIRCULAR         4.0000 0     0     0     1
BAC005             CIRCULAR         4.0000 0     0     0     1
BAC006             CIRCULAR         4.0000 0     0     0     1
BAC007             CIRCULAR         4.0000 0     0     0     1
BAC008             CIRCULAR         4.0000 0     0     0     1
BAC009             CIRCULAR         4.0000 0     0     0     1
BAC010             CIRCULAR         4.0000 0     0     0     1
BAC011             CIRCULAR         4.0000 0     0     0     1
BAC012             CIRCULAR         4.0000 0     0     0     1
BAC013             CIRCULAR         4.0000 0     0     0     1
BAC014             CIRCULAR         4.0000 0     0     0     1
BAC015             CIRCULAR         4.0000 0     0     0     1
BAC016             CIRCULAR         4.0000 0     0     0     1
BAC017             CIRCULAR         4.0000 0     0     0     1
BAC018             CIRCULAR         4.0000 0     0     0     1
BAC019             CIRCULAR         4.0000 0     0     0     1
BAC020             CIRCULAR         4.0000 0     0     0     1
BAC021             CIRCULAR         4.0000 0     0     0     1
BAC022             CIRCULAR         4.0000 0     0     0     1
BAC023             CIRCULAR         4.0000 0     0     0     1
BAC024             CIRCULAR         4.0000 0     0     0     1
BAC025             CIRCULAR         4.0000 0     0     0     1
BAC026             CIRCULAR         4.0000 0     0     0     1
BAC027             CIRCULAR         4.0000 0     0     0     1
BAC028             CIRCULAR         4.0000 0     0     0     1
BAC029             CIRCULAR         4.0000 0     0     0     1
BAC030             CIRCULAR         4.0000 0     0     0     1
BAC031             CIRCULAR         4.0000 0     0     0     1
BAC032             CIRCULAR         4.0000 0     0     0     1
BAC033             CIRCULAR         4.0000 0     0     0     1
BAC034             CIRCULAR         4.0000 0     0     0     1
BAC035             CIRCULAR         4.0000 0     0     0     1
BAC036             CIRCULAR         4.0000 0     0     0     1
BAC037             CIRCULAR         4.0000 0     0     0     1
BAC038             CIRCULAR         4.0000 0     0     0     1
BAC039             CIRCULAR         4.0000 0     0     0     1
BAC040             CIRCULAR         4.0000 0     0     0     1
BAC041             CIRCULAR         4.0000 0     0     0     1
BAC042             CIRCULAR         4.0000 0     0     0     1
BAC043             CIRCULAR         4.0000 0     0     0     1
BAC044             CIRCULAR         4.0000 0     0     0     1
BAC045             CIRCULAR         4.0000 0     0     0     1
BAC046             CIRCULAR         4.0000 0     0     0     1
BAC047             CIRCULAR         4.0000 0     0     0     1
BAC048             CIRCULAR         4.0000 0     0     0     1
BAC049             CIRCULAR         4.0000 0     0     0     1
BAC050             CIRCULAR         4.0000 0     0     0     1
BAC051             CIRCULAR         4.0000 0     0     0     1
BAC052             CIRCULAR         4.0000 0     0     0     1
BAC053             CIRCULAR         4.0000 0     0     0     1
BAC054             CIRCULAR         4.0000 0     0     0     1
BAC055             CIRCULAR         4.0000 0     0     0     1
BAC056             CIRCULAR         4.0000 0     0     0     1
BAC057             CIRCULAR         4.0000 0     0     0     1
BAC058             CIRCULAR         4.0000 0     0     0     1
BAC059             CIRCULAR         4.0000 0     0     0     1
BAC060             CIRCULAR         4.0000 0     0     0     1
BAC061             CIRCULAR         4.0000 0     0     0     1
BAC062             CIRCULAR         4.0000 0     0     0     1
BAC063             CIRCULAR         4.0000 0     0     0     1
BAC064             CIRCULAR         4.0000 0     0     0     1
BAC065             CIRCULAR         4.0000 0     0     0     1
BAC066             CIRCULAR         4.0000 0     0     0     1
BAC067             CIRCULAR         4.0000 0     0     0     1
BAC068             CIRCULAR         4.0000 0     0     0     1
BAC069             CIRCULAR         4.0000 0     0     0     1
BAC070             CIRCULAR         4.0000 0     0     0     1
BAC071             CIRCULAR         4.0000 0     0     0     1
BAC072             CIRCULAR         4.0000 0     0     0     1
BBC000             CIRCULAR         3.5000 0     0     0     1
BBC001             CIRCULAR         3.5000 0     0     0     1
BBC002             CIRCULAR         3.5000 0     0     0     1
BBC003             CIRCULAR         3.5000 0     0     0     1
BBC004             CIRCULAR         3.5000 0     0     0     1
BBC005             CIRCULAR         3.5000 0     0     0     1
BBC006             CIRCULAR         3.5000 0     0     0     1
BBC007             CIRCULAR         3.5000 0     0     0     1
BBC008             CIRCULAR         3.5000 0     0     0     1
BBC009             CIRCULAR         3.5000 0     0     0     1
BBC010             CIRCULAR         3.5000 0     0     0     1
BBC011             CIRCULAR         3.5000 0     0     0     1
BBC012             CIRCULAR         3.5000 0     0     0     1
BBC013             CIRCULAR         3.5000 0     0     0     1
BBC014             CIRCULAR         3.5000 0     0     0     1
BBC015             CIRCULAR         3.5000 0     0     0     1
BBC016             CIRCULAR         3.5000 0     0     0     1
BBC017             CIRCULAR         3.5000 0     0     0     1
BBC018             CIRCULAR         3.5000 0     0     0     1
BBC019             CIRCULAR         3.5000 0     0     0     1
BBC020             CIRCULAR         3.5000 0     0     0     1
BBC021             CIRCULAR         3.5000 0     0     0     1
BBC022             CIRCULAR         3.5000 0     0     0     1
BBC023             CIRCULAR         3.5000 0     0     0     1
BBC024             CIRCULAR         3.5000 0     0     0     1
BBC025             CIRCULAR         3.5000 0     0     0     1
BBC026             CIRCULAR         3.5000 0     0     0     1
BBC027             CIRCULAR         3.5000 0     0     0     1
BBC028             CIRCULAR         3.5000 0     0     0     1
BBC029             CIRCULAR         3.5000 0     0     0     1
BBC030             CIRCULAR         3.5000 0     0     0     1
BBC031             CIRCULAR         3.5000 0     0     0     1
BBC032             CIRCULAR         3.5000 0     0     0     1
BBC033             CIRCULAR         3.5000 0     0     0     1
BBC034             CIRCULAR         3.5000 0     0     0     1
BBC035             CIRCULAR         3.5000 0     0     0     1
BBC036             CIRCULAR         3.5000 0     0     0     1
BBC037             CIRCULAR         3.5000 0     0     0     1
BBC038             CIRCULAR         3.5000 0     0     0     1
BBC039             CIRCULAR         3.5000 0     0     0     1
BBC040             CIRCULAR         3.5000 0     0     0     1
BBC041             CIRCULAR         3.5000 0     0     0     1
BBC042             CIRCULAR         3.5000 0     0     0     1
BBC043             CIRCULAR         3.5000 0     0     0     1
BBC044             CIRCULAR         3.5000 0     0     0     1
BBC045             CIRCULAR         3.5000 0     0     0     1
BBC046             CIRCULAR         3.5000 0     0     0     1
BBC047             CIRCULAR         3.5000 0     0     0     1
BBC048             CIRCULAR         3.5000 0     0     0     1
BBC049             CIRCULAR         3.5000 0     0     0     1
BBC050             CIRCULAR         3.5000 0     0     0     1
BBC051             CIRCULAR         3.5000 0     0     0     1
BBC052             CIRCULAR         3.5000 0     0     0     1
BBC053             CIRCULAR         3.5000 0     0     0     1
BBC054             CIRCULAR         3.5000 0     0     0     1
FRS_Outlet         CIRCULAR         3.0000 0     0     0
FRS_Overflow       RECT_CLOSED      4.0000 8     0     0

[INFLOWS]
;;Node             Constituent  TimeSeries       Type   Mfactor Sfactor
TU0000000          FLOW         Trunk_Surge      FLOW   1.0     1.0
BA0000000          FLOW         BranchA_Surge    FLOW   1.0     1.0
BB0000000          FLOW         BranchB_Surge    FLOW   1.0     1.0

[TIMESERIES]
;;Name             Time    Value
Trunk_Surge           0:00      12.00
Trunk_Surge           1:00      12.00
Trunk_Surge           2:30     140.00
Trunk_Surge           4:00     140.00
Trunk_Surge           7:00      12.00
Trunk_Surge          13:00      12.00
Trunk_Surge          14:30     119.00
Trunk_Surge          16:00     119.00
Trunk_Surge          19:00      12.00
Trunk_Surge          24:00      12.00
BranchA_Surge         0:00       4.00
BranchA_Surge         1:30       4.00
BranchA_Surge         3:00      45.00
BranchA_Surge         4:30      45.00
BranchA_Surge         7:30       4.00
BranchA_Surge        13:30       4.00
BranchA_Surge        15:00      38.25
BranchA_Surge        16:30      38.25
BranchA_Surge        19:30       4.00
BranchA_Surge        24:00       4.00
BranchB_Surge         0:00       3.00
BranchB_Surge         2:00       3.00
BranchB_Surge         3:30      30.00
BranchB_Surge         5:00      30.00
BranchB_Surge         8:00       3.00
BranchB_Surge        14:00       3.00
BranchB_Surge        15:30      25.50
BranchB_Surge        17:00      25.50
BranchB_Surge        20:00       3.00
BranchB_Surge        24:00       3.00

[REPORT]
INPUT      NO
CONTINUITY YES
FLOWSTATS  YES

[COORDINATES]
;;Node             X-Coord        Y-Coord
TU0000000              10000.0000     42000.0000
TU0000124              10073.8205     41900.2800
TU0000243              10156.9185     41815.2852
TU0000340              10220.6007     41741.5788
TU0000435              10283.3950     41671.2223
TU0000560              10356.6083     41569.1333
TU0000624              10395.4792     41518.0155
TU0000722              10464.9438     41449.2218
TU0000835              10547.6212     41372.9278
TU0000940              10632.3207     41310.0415
TU0001043              10708.0571     41239.8732
TU0001128              10764.8596     41177.6158
TU0001211              10813.9521     41110.2328
TU0001310              10870.3222     41029.5914
TU0001388              10908.4316     40960.6478
TU0001514              10953.5453     40843.7631
TU0001586              10982.6549     40777.1957
TU0001670              11016.9119     40700.7594
TU0001788              11040.1448     40585.4265
TU0001904              11069.0347     40472.8096
TU0001982              11093.6649     40398.8990
TU0002056              11111.2101     40326.8082
TU0002136              11122.3169     40247.3126
TU0002196              11132.3492     40188.0762
TU0002329              11134.6719     40055.3500
TU0002403              11149.6388     39982.8838
TU0002542              11188.6880     39849.3484
TU0002672              11222.7931     39724.0615
TU0002811              11262.0352     39591.1814
TU0002907              11305.5729     39505.3098
TU0003035              11374.1657     39397.5446
TU0003158              11437.9782     39292.4475
TU0003232              11484.7579     39234.3086
TU0003306              11522.4218     39171.4614
TU0003428              11585.9682     39066.9776
TU0003502              11622.4897     39002.6788
TU0003572              11663.0890     38945.3031
TU0003633              11703.5059     38899.6435
TU0003725              11766.0728     38832.2794
TU0003860              11845.7531     38723.0070
TU0003925              11887.7320     38673.4674
TU0004028              11941.9311     38586.6052
TU0004125              11983.9184     38498.6468
TU0004230              12017.2934     38398.5791
TU0004296              12033.8437     38335.4551
TU0004396              12065.7122     38240.6312
TU0004532              12102.1910     38109.8762
TU0004635              12124.4202     38008.3731
TU0004699              12147.0298     37949.4705
TU0004824              12173.9653     37827.1135
TU0004892              12184.1714     37759.4122
TU0004960              12203.1781     37694.0546
TU0005034              12211.7267     37620.5296
TU0005118              12223.1744     37538.1350
TU0005213              12256.1258     37448.2257
TU0005350              12310.1425     37322.9620
TU0005415              12334.8138     37262.8246
TU0005538              12388.4412     37151.5546
TU0005612              12405.6674     37079.6093
TU0005720              12425.7016     36974.1152
TU0005803              12438.9858     36891.3607
TU0005888              12445.0220     36806.8182
TU0005996              12450.7921     36698.6409
TU0006069              12454.8068     36626.6584
TU0006204              12475.2055     36492.4747
TU0006329              12498.7547     36370.0212
TU0006445              12517.7736     36256.0822
TU0006547              12542.2851     36156.1498
TU0006649              12569.5367     36057.7950
TU0006784              12609.5162     35929.6379
TU0006922              12653.8701     35798.3267
TU0007041              12695.3692     35687.2093
TU0007110              12717.2043     35621.5754
TU0007249              12785.7861     35500.8049
TU0007340              12835.8210     35424.4032
TU0007462              12900.7756     35321.6450
TU0007577              12967.0260     35227.5143
TU0007686              13018.6167     35131.7492
TU0007798              13064.5440     35029.3455
TU0007917              13094.6194     34914.0893
TU0008033              13121.3902     34801.7334
TU0008128              13135.6952     34707.2099
TU0008196              13150.7840     34641.3075
TU0008327              13190.2512     34516.4440
TU0008434              13235.3649     34418.8684
TU0008546              13290.8947     34322.2902
TU0008608              13321.9511     34267.7012
TU0008742              13406.0169     34163.9701
TU0008847              13455.4112     34071.7857
TU0008976              13509.9905     33954.0314
TU0009092              13569.4805     33855.1154
TU0009193              13613.2480     33763.3855
TU0009260              13639.4886     33701.8293
TU0009338              13663.6922     33627.7394
TU0009406              13674.2366     33560.9255
TU0009470              13680.0282     33496.7560
TU0009608              13665.1476     33360.3441
TU0009718              13650.3647     33250.9177
TU0009817              13638.5527     33152.7003
TM0000096              13645.5548     33056.7994
TM0000199              13641.5993     32954.2838
TM0000310              13642.7366     32843.0189
TM0000381              13626.5307     32773.7223
TM0000450              13611.3305     32706.1955
TM0000516              13606.6684     32641.1166
TM0000580              13605.4309     32576.8524
TM0000672              13593.8382     32485.5662
TM0000767              13584.7875     32391.3691
TM0000872              13593.7783     32286.1148
TM0000987              13587.5775     32171.7185
TM0001060              13594.4485     32099.2905
TM0001158              13610.9349     32002.6433
TM0001259              13619.7346     31901.6408
TM0001339              13619.1089     31821.2415
TM0001460              13617.7382     31700.1378
TM0001579              13630.2698     31582.4263
TM0001675              13640.9316     31487.0068
TM0001742              13658.1546     31421.8055
TM0001838              13681.7843     31328.9455
TM0001947              13706.6752     31222.4722
TM0002081              13728.3974     31090.6315
TM0002189              13734.3283     30982.6148
TM0002305              13763.4146     30870.5731
TM0002412              13779.4292     30764.6901
TM0002474              13798.7126     30705.8231
TM0002582              13826.4380     30601.1747
TM0002713              13846.4527     30472.0861
TM0002773              13857.1413     30412.5395
TM0002894              13894.9667     30297.7816
TM0003030              13916.7741     30163.9116
TM0003126              13950.7695     30073.8796
TM0003262              14007.7662     29950.2712
TM0003352              14047.1579     29869.9861
TM0003416              14072.0554     29810.1905
TM0003519              14111.1675     29715.5256
TM0003585              14135.8268     29653.7234
TM0003683              14164.8671     29560.6100
TM0003808              14192.1765     29438.1321
TM0003923              14211.4125     29325.5749
TM0004047              14251.0060     29207.6624
TM0004167              14293.5355     29095.1860
TM0004263              14326.8201     29005.1909
TM0004352              14332.5356     28916.9740
TM0004432              14331.0291     28836.4068
TM0004544              14327.1721     28724.7135
TM0004675              14317.3429     28593.7151
TM0004789              14309.6105     28480.0294
TM0004865              14321.0657     28405.2898
TM0004992              14323.8323     28278.6681
TM0005127              14338.7977     28144.1545
TM0005252              14361.2371     28020.9935
TM0005377              14388.3330     27899.0487
TM0005490              14413.2425     27788.9279
TM0005578              14421.1598     27701.3552
TM0005684              14405.2550     27596.6290
TM0005760              14394.1998     27521.4026
TM0005872              14370.8945     27411.9139
TM0005955              14357.3698     27329.3134
TM0006059              14335.0420     27228.5095
TM0006123              14319.4570     27165.8439
TM0006205              14286.3536     27091.4471
TM0006319              14250.7770     26983.2408
TM0006413              14214.3433     26896.3674
TM0006552              14146.1476     26775.3420
TM0006652              14096.5864     26687.6238
TM0006717              14066.7469     26629.8654
TM0006792              14027.1319     26566.9043
TM0006897              13970.8908     26478.4257
TM0006959              13940.6125     26423.6962
TM0007031              13918.6011     26355.8020
TM0007142              13894.1631     26247.0808
TM0007238              13870.5491     26154.3177
TL0000111              13850.3045     26045.5822
TL0000172              13836.3903     25985.8346
TL0000258              13813.2679     25903.4352
TL0000356              13797.8343     25806.0825
TL0000488              13781.8295     25675.0807
TL0000569              13766.1169     25595.2053
TL0000647              13751.2050     25519.5122
TL0000749              13731.7293     25418.7099
TL0000830              13709.7110     25340.5764
TL0000936              13677.3162     25240.2918
TL0001055              13620.0443     25135.8151
TL0001128              13589.3226     25069.1216
TL0001230              13540.2535     24980.5172
TL0001347              13508.3149     24867.7399
TL0001419              13474.2495     24803.8151
TL0001507              13445.3620     24721.1552
TL0001571              13422.6217     24661.2315
TL0001682              13373.9768     24561.7600
TL0001776              13332.7835     24477.0317
TL0001874              13288.4221     24390.0213
TL0001991              13231.5598     24287.7694
TL0002075              13191.2851     24213.7382
TL0002155              13160.3358     24140.0950
TL0002282              13085.2308     24037.6859
TL0002374              13021.4803     23970.5768
TL0002444              12969.5457     23923.9934
TL0002551              12896.9917     23845.8925
TL0002658              12832.6921     23759.4508
TL0002767              12769.4790     23670.7913
TL0002880              12713.3740     23572.9518
TL0002962              12681.4867     23498.0115
TL0003039              12637.2895     23434.5479
TL0003126              12582.4887     23366.6435
TL0003263              12485.2027     23269.8300
TL0003397              12394.7625     23171.1575
TL0003471              12347.2036     23114.9137
TL0003550              12307.7464     23046.8007
TL0003627              12265.1645     22981.8783
TL0003696              12226.2354     22925.7944
TL0003812              12167.7179     22824.6277
TL0003912              12103.9148     22748.3193
TL0004035              12005.2815     22674.8349
TL0004124              11935.2753     22619.6373
TL0004231              11859.2085     22544.3030
TL0004323              11787.0285     22487.7093
TL0004460              11686.7564     22393.6650
TL0004588              11609.5009     22292.1295
TL0004707              11540.8185     22195.3802
TL0004797              11484.6147     22125.0351
TL0004894              11417.6295     22054.6317
TL0005003              11343.3521     21973.9674
TL0005119              11270.7991     21884.2779
TL0005207              11206.4638     21823.6651
TL0005323              11122.7327     21743.1439
TL0005447              11031.6566     21659.1083
TL0005564              10949.5036     21576.5550
TL0005637              10896.8053     21525.4862
TL0005767              10796.6215     21442.5212
TL0005840              10745.5077     21390.5063
TL0005912              10703.8348     21332.2574
TL0006049              10609.4958     21232.5595
TL0006125              10546.6944     21189.9085
TL0006238              10446.9323     21135.9350
TL0006375              10333.6357     21059.8357
TL0006486              10244.3790     20993.7874
TL0006608              10137.0248     20936.0278
TL0006736              10024.4602     20874.9561
TL0006842               9924.5938     20837.4365
TL0006906               9863.4111     20819.4269
TL0006972               9803.5600     20791.9303
TL0007106               9680.6987     20737.8891
TL0007246               9557.3667     20671.8415
TL0007331               9488.0063     20623.6310
TL0007391               9440.9566     20586.2138
TL0007482               9372.3739     20526.8296
TL0007592               9294.9498     20448.0211
TL0007711               9201.1736     20375.5545
TL0007780               9148.7451     20329.7367
TL0007853               9087.9587     20290.3734
TL0007940               9010.8176     20250.2319
TL0008058               8910.8609     20185.9549
TL0008156               8832.8488     20127.3331
TL0008291               8732.4959     20036.4281
TL0008415               8642.7230     19951.0062
TL0008539               8555.2948     19863.0935
TL0008657               8476.1802     19775.5470
TL0008764               8398.5225     19701.7018
FRS_Basin               8357.5557     19651.4865
BA0000000              16368.2325     39642.9747
BA0000066              16330.7922     39589.1661
BA0000147              16275.9306     39528.3299
BA0000248              16204.4620     39457.7467
BA0000357              16129.4764     39379.1235
BA0000491              16052.8690     39268.7393
BA0000615              15995.3823     39158.7803
BA0000735              15939.2079     39053.0700
BA0000822              15911.8750     38970.4977
BA0000926              15875.1933     38873.2054
BA0000993              15857.3555     38807.9506
BA0001132              15823.7464     38673.8404
BA0001208              15797.5507     38601.7046
BA0001310              15781.4811     38501.6311
BA0001448              15758.3687     38365.6675
BA0001560              15736.1899     38255.4855
BA0001622              15725.6241     38194.3002
BA0001740              15686.5143     38083.4053
BA0001867              15637.1472     37966.1811
BA0001947              15600.0991     37895.4040
BA0002065              15544.4121     37791.2149
BA0002151              15497.6564     37719.3006
BA0002213              15472.7249     37662.1008
BA0002283              15441.5314     37599.2975
BA0002376              15390.1197     37521.5431
BA0002479              15336.6532     37433.7618
BA0002576              15297.1815     37344.8522
BA0002678              15253.6585     37253.1064
BA0002746              15220.9338     37193.9260
BA0002849              15174.4823     37101.5919
BA0002945              15121.4616     37021.0544
BA0003033              15061.8930     36956.4108
BA0003095              15037.6950     36900.0516
BA0003235              15007.3645     36763.5131
BA0003311              14988.6052     36688.9726
BA0003404              14973.3060     36597.7494
BA0003499              14962.5074     36502.7971
BA0003631              14950.0034     36372.2785
BA0003743              14945.6667     36260.2048
BA0003851              14932.5044     36152.2969
BA0003922              14922.6430     36082.1601
BA0004020              14903.9339     35986.6308
BA0004157              14854.1887     35858.9793
BA0004271              14824.0059     35748.2388
BA0004410              14768.7240     35620.8218
BA0004543              14705.7649     35503.5899
BA0004613              14667.9550     35444.7186
BA0004710              14620.1651     35360.5272
BA0004823              14560.3847     35264.5335
BA0004893              14529.3667     35201.5618
BA0004985              14484.8960     35121.1432
BA0005061              14467.1152     35047.5399
BA0005180              14448.8367     34929.5029
BA0005279              14423.5891     34834.5628
BA0005359              14399.4238     34757.7196
BA0005423              14378.8891     34697.3154
BA0005511              14341.5846     34617.1342
BA0005580              14315.7014     34553.4263
BA0005650              14285.4579     34490.2528
BA0005767              14231.8902     34386.3861
BA0005860              14195.2955     34301.1777
BA0005945              14164.5844     34221.5067
BA0006053              14139.2074     34116.7737
BA0006170              14098.2019     34007.1509
BA0006275              14056.8636     33910.3281
BA0006413              13996.9578     33786.7228
BA0006510              13940.0494     33707.5584
BA0006572              13909.1713     33654.0455
BA0006702              13850.6709     33538.0304
BA0006807              13802.1657     33444.9552
BA0006902              13756.8229     33361.2799
BA0006971              13728.6723     33298.6604
BA0007053              13681.9397     33230.5747
BB0000000               9596.9996     29587.8684
BB0000130               9717.4147     29538.7729
BB0000201               9783.8417     29513.1425
BB0000273               9845.9414     29476.9982
BB0000335               9904.9863     29457.4295
BB0000469              10029.5150     29409.6859
BB0000568              10124.1039     29379.2657
BB0000668              10210.3674     29328.5056
BB0000778              10301.9927     29267.2267
BB0000915              10400.9769     29172.6913
BB0000981              10449.0279     29127.5316
BB0001065              10507.2835     29066.8752
BB0001168              10576.2863     28990.0981
BB0001229              10616.6046     28945.1841
BB0001359              10711.8065     28855.8388
BB0001422              10759.1305     28814.1685
BB0001540              10849.5662     28739.1888
BB0001605              10895.3573     28693.2333
BB0001679              10955.9172     28650.1307
BB0001817              11069.2676     28570.8005
BB0001934              11157.7259     28494.9049
BB0002032              11228.4552     28427.6698
BB0002116              11289.2663     28369.1428
BB0002243              11375.2525     28276.3009
BB0002336              11436.4814     28205.8365
BB0002415              11488.1147     28145.9400
BB0002507              11552.5725     28080.1737
BB0002622              11642.9386     28009.8877
BB0002721              11721.1291     27948.7146
BB0002839              11812.2529     27874.2515
BB0002977              11918.7193     27786.1133
BB0003079              12003.7943     27729.6473
BB0003149              12062.3700     27690.6303
BB0003278              12168.8255     27618.2923
BB0003350              12228.1783     27578.3154
BB0003489              12343.8528     27500.4092
BB0003628              12429.4350     27390.2745
BB0003736              12490.2868     27301.8378
BB0003841              12550.4012     27215.4160
BB0003920              12600.6255     27154.9441
BB0004045              12699.6156     27078.2673
BB0004134              12776.8119     27033.3322
BB0004265              12889.3517     26967.2486
BB0004326              12944.8398     26942.3177
BB0004414              13022.8703     26901.1844
BB0004499              13093.0458     26853.0347
BB0004614              13197.1957     26803.8375
BB0004734              13294.8904     26734.6246
BB0004858              13386.1033     26649.9726
BB0004953              13458.8814     26589.1820
BB0005056              13535.9036     26520.1622
BB0005158              13608.5227     26448.8177
BB0005220              13647.4612     26400.8083
BB0005347              13728.1833     26302.6923
BB0005425              13785.5005     26249.3532
OUT_RIVER               9257.5557     18951.4865
OUT_OVERFLOW            9457.5557     19951.4865
