[OPTIONS]
FLOW_UNITS           CMS
FLOW_ROUTING         DYNWAVE
START_DATE           01/01/2026
START_TIME           00:00:00
END_DATE             01/01/2026
END_TIME             00:30:00
REPORT_STEP          00:01:00
WET_STEP             00:01:00
DRY_STEP             00:01:00
ROUTING_STEP         5
ALLOW_PONDING        NO

[JUNCTIONS]
J1 -5.00 6.0 0 0 0

[OUTFALLS]
O1 -5.05 FREE NO

[CONDUITS]
C1 J1 O1 30.0 0.013 0 0 0

[XSECTIONS]
C1 CIRCULAR 0.5 0 0 0 1

[LOSSES]
;;Link Kentry Kexit Kavg Flap Seepage(mm/hr)
C1  0  0  0  NO  100

[INFLOWS]
J1  FLOW  IN1  FLOW  1.0  1.0

[TIMESERIES]
IN1  0:00  0.5
IN1  1:00  0.5

[COORDINATES]
J1  1.0  5.0
O1  9.0  5.0

[2D_OPTIONS]
INTEGRATOR EXPLICIT
MAX_TIMESTEP 5
DRY_DEPTH 0.001
COUPLING_CD 0.7
REPORT_2D NO

MOMENTUM_EQUATION FULL_SWE

RECONSTRUCTION_ORDER 2

LTS_TIERS 1

CELL_CLOSURE VFR

[2D_VERTICES]
0.0 0.0 0.0
10.0 0.0 0.0
10.0 10.0 0.0
0.0 10.0 0.0

[2D_TRIANGLES]
;;V1 V2 V3 N INIT_DEPTH
0 1 2 0.03 0.0
0 2 3 0.03 0.0

[2D_AQUIFER_OPTIONS]
CLOSURE CLOSED_FORM
NODE_ENROLMENT ROWS
LINK_SEEPAGE TWO_WAY

[2D_AQUIFER]
*  36.0  8.0  0.45  0.10  2.0  HG0 6

[REPORT]
INPUT NO
