[OPTIONS]
FLOW_UNITS CMS
FLOW_ROUTING DYNWAVE
START_DATE 01/01/2026
START_TIME 00:00:00
END_DATE 01/01/2026
END_TIME 00:01:00
ROUTING_STEP 1
[JUNCTIONS]
J 1 5 0 0 0
[OUTFALLS]
O 0 FREE NO
2211640003 0 FREE NO
2211640006 0 FREE NO
2213640005 0 FREE NO
2213640010 0 FREE NO
2213640013 0 FREE NO
2213640018 0 FREE NO
2213640019 0 FREE NO
2213640020 0 FREE NO
2213640021 0 FREE NO
2214640002 0 FREE NO
2214640004 0 FREE NO
2312640010 0 FREE NO
2312640011 0 FREE NO
2312640014 0 FREE NO
2412640005 0 FREE NO
NewOF 0 FREE NO
WROX_0578-outfall 0 FREE NO
[CONDUITS]
C J O 10 0.013 0 0
[XSECTIONS]
C CIRCULAR 0.5 0 0 0 1
[2D_OPTIONS]
MAX_TIMESTEP 1
REPORT_2D NO
[2D_VERTICES]
0 0 0
20 0 0
20 20 0
0 20 0
[2D_TRIANGLES]
0 1 2 0.03
0 2 3 0.03
[2D_VERTEX_NODE_MAP]
0 O 0.65 1
[2D_TRIANGLE_NODE_MAP]
0 2211640003 0.65 1
0 2211640006 0.65 1
0 2213640005 0.65 1
0 2213640010 0.65 1
0 2213640013 0.65 1
0 2213640018 0.65 1
0 2213640019 0.65 1
0 2213640020 0.65 1
0 2213640021 0.65 1
0 2214640002 0.65 1
0 2214640004 0.65 1
0 2312640010 0.65 1
0 2312640011 0.65 1
0 2312640014 0.65 1
0 2412640005 0.65 1
0 NewOF 0.65 1
0 WROX_0578-outfall 0.65 1
1 2211640003 0.65 1
